LAMMPS (29 Oct 2020)
units		real
atom_style	full

pair_style	lj/cut/coul/cut 10.0
pair_modify	mix geometric

bond_style	zero
angle_style	zero

read_data	methdata.lmp
Reading data file ...
  orthogonal box = (-25.981333 -25.356000 -25.542999) to (25.102667 25.728000 25.541001)
  1 by 1 by 1 MPI processor grid
  reading atoms ...
  3000 atoms
  scanning bonds ...
  1 = max bonds/atom
  scanning angles ...
  1 = max angles/atom
  reading bonds ...
  2000 bonds
  reading angles ...
  1000 angles
Finding 1-2 1-3 1-4 neighbors ...
  special bond factors lj:    0.0      0.0      0.0     
  special bond factors coul:  0.0      0.0      0.0     
     2 = max # of 1-2 neighbors
     1 = max # of 1-3 neighbors
     1 = max # of 1-4 neighbors
     2 = max # of special neighbors
  special bonds CPU = 0.001 seconds
  read_data CPU = 0.011 seconds

pair_coeff	1 1 0.2072 3.748 	#	CH3
pair_coeff	2 2 0.0210 1.580	#	H
pair_coeff	3 3 0.1554 3.192	#	O

bond_coeff 1 1.43
bond_coeff 2 0.945

angle_coeff	1 108.5

min_style   sd
minimize 1e-10 1e-10 100 100
WARNING: Using 'neigh_modify every 1 delay 0 check yes' setting during minimization (../min.cpp:187)
Neighbor list info ...
  update every 1 steps, delay 0 steps, check yes
  max neighbors/atom: 2000, page size: 100000
  master list distance cutoff = 12
  ghost atom cutoff = 12
  binsize = 6, bins = 9 9 9
  1 neighbor lists, perpetual/occasional/extra = 1 0 0
  (1) pair lj/cut/coul/cut, perpetual
      attributes: half, newton on
      pair build: half/bin/newton
      stencil: half/bin/3d/newton
      bin: standard
Per MPI rank memory allocation (min/avg/max) = 8.696 | 8.696 | 8.696 Mbytes
Step Temp E_pair E_mol TotEng Press 
       0            0   -17427.221            0   -17427.221   -3544.8041 
      15            0   -91865.176            0   -91865.176   -15944.121 
Loop time of 0.397323 on 1 procs for 15 steps with 3000 atoms

95.1% CPU use with 1 MPI tasks x no OpenMP threads

Minimization stats:
  Stopping criterion = max force evaluations
  Energy initial, next-to-last, final = 
     -17427.2210874372  -91865.1761216674   -91865.176450676
  Force two-norm initial, final = 114.05111 651.79346
  Force max component initial, final = 2.2186487 15.393020
  Final line search alpha, max atom move = 7.7443729e-10 1.1920929e-08
  Iterations, force evaluations = 15 101

MPI task timing breakdown:
Section |  min time  |  avg time  |  max time  |%varavg| %total
---------------------------------------------------------------
Pair    | 0.38824    | 0.38824    | 0.38824    |   0.0 | 97.71
Bond    | 9.5606e-05 | 9.5606e-05 | 9.5606e-05 |   0.0 |  0.02
Neigh   | 0          | 0          | 0          |   0.0 |  0.00
Comm    | 0.0036225  | 0.0036225  | 0.0036225  |   0.0 |  0.91
Output  | 0          | 0          | 0          |   0.0 |  0.00
Modify  | 0          | 0          | 0          |   0.0 |  0.00
Other   |            | 0.005363   |            |       |  1.35

Nlocal:        3000.00 ave        3000 max        3000 min
Histogram: 1 0 0 0 0 0 0 0 0 0
Nghost:        5624.00 ave        5624 max        5624 min
Histogram: 1 0 0 0 0 0 0 0 0 0
Neighs:       251000.0 ave      251000 max      251000 min
Histogram: 1 0 0 0 0 0 0 0 0 0

Total # of neighbors = 251000
Ave neighs/atom = 83.666667
Ave special neighs/atom = 2.0000000
Neighbor list builds = 0
Dangerous builds = 0

velocity	all create 300.0 2345

timestep	2.0

fix	stiff all shake 0.0001 20 0 b 1	2 a 1
       0 = # of size 2 clusters
       0 = # of size 3 clusters
       0 = # of size 4 clusters
    1000 = # of frozen angles
  find clusters CPU = 0.001 seconds

#fix	1 all nvt temp 300.0 300.0 $(100.0*dt)
fix     1 all npt temp 320.0 320.0 $(100.0*dt) iso 1.0 1.0 $(1000.0*dt)
fix     1 all npt temp 320.0 320.0 200 iso 1.0 1.0 $(1000.0*dt)
fix     1 all npt temp 320.0 320.0 200 iso 1.0 1.0 2000

thermo	1000
thermo_style	custom step time temp etotal pe ke ecoul evdwl lx vol press density enthalpy

dump TRAJ all custom 1000 npt_methanol_simulation.lammpstrj id mol type element xs ys zs
dump_modify TRAJ element CH3 H O

compute myRDF all rdf 50
fix 2 all ave/time 100 1 20000 c_myRDF[*] file methanol_simulation.rdf mode vector

run 750000
Neighbor list info ...
  update every 1 steps, delay 10 steps, check yes
  max neighbors/atom: 2000, page size: 100000
  master list distance cutoff = 12
  ghost atom cutoff = 12
  binsize = 6, bins = 9 9 9
  2 neighbor lists, perpetual/occasional/extra = 1 1 0
  (1) pair lj/cut/coul/cut, perpetual
      attributes: half, newton on
      pair build: half/bin/newton
      stencil: half/bin/3d/newton
      bin: standard
  (2) compute rdf, occasional, copy from (1)
      attributes: half, newton on
      pair build: copy
      stencil: none
      bin: none
Per MPI rank memory allocation (min/avg/max) = 8.447 | 8.447 | 8.447 Mbytes
Step Time Temp TotEng PotEng KinEng E_coul E_vdwl Lx Volume Press Density Enthalpy 
      15            0    450.07504   -89183.342   -91865.176    2681.8348   -90733.712   -1131.4641       51.084    133307.53   -16962.633   0.39912965   -122161.31 
    1000         1970    332.53477   -3977.5003   -5958.9551    1981.4547   -5211.5261   -747.42894    48.915174    117039.05   -409.99219   0.45460884   -4677.3138 
    2000         3970    318.22453   -2897.0624   -4793.2476    1896.1852   -3990.5884   -802.65915    47.069146    104281.91   -5.8710422   0.51022263   -2905.9913 
    3000         5970    315.12449   -3069.0814   -4946.7945    1877.7132   -4042.6626   -904.13194    45.928458    96882.555   -38.965392   0.54919059   -3124.1368 
    4000         7970    303.75651   -5164.9145     -6974.89    1809.9755   -6010.0734   -964.81657    45.040239    91369.668   -104.94943    0.5823266    -5304.763 
    5000         9970    327.40023   -5432.4566   -7383.3165    1950.8599   -6388.0221   -995.29439    44.117799    85870.012    146.57815   0.61962246   -5248.8929 
    6000        11970    319.15084   -4725.2107   -6626.9155    1901.7047   -5477.7634    -1149.152    43.499704    82311.193    117.00502   0.64641255   -4584.7551 
    7000        13970    318.50591   -6959.2507   -8857.1125    1897.8618   -7582.2843   -1274.8283    42.993665    79471.867    -720.5276   0.66950721   -7794.3535 
    8000        15970    317.86823   -6448.2049    -8342.267    1894.0621   -7080.4138   -1261.8532    42.572919    77161.432   -279.48917   0.68955418   -6762.7198 
    9000        17970    322.83555   -6561.7815    -8485.442    1923.6606   -7204.6537   -1280.7883    42.343879    75922.746   -90.587835   0.70080432   -6662.0853 
   10000        19970     316.5547   -6306.8497    -8193.085    1886.2353   -6883.1217   -1309.9633    42.044632    74324.443    1.7730787    0.7158747   -6304.9278 
   11000        21970    321.92762   -6906.1273   -8824.3778    1918.2505   -7495.8388   -1328.5391    41.811121    73092.943   -39.390262   0.72793605   -6948.1168 
   12000        23970    309.79167   -6971.1843   -8817.1211    1845.9368   -7440.9865   -1376.1345    41.740888    72725.221   -241.25587   0.73161673   -7227.0657 
   13000        25970    320.54828   -6511.0452   -8421.0768    1910.0316   -7011.1695   -1409.9073    41.517807    71565.419   -13.800274   0.74347344   -6525.4487 
   14000        27970    326.58338   -7624.9012   -9570.8937    1945.9926   -8155.6388   -1415.2549    41.523978    71597.333   -433.31473   0.74314205    -8077.357 
   15000        29970    326.14164   -6387.1827   -8330.5431    1943.3604   -6933.7219   -1396.8212    41.625437     72123.44     -178.214   0.73772117   -6574.6365 
   16000        31970    322.69675   -4986.7522   -6909.5857    1922.8335   -5516.4997    -1393.086    41.372927     70818.83    631.04363   0.75131131   -4334.9977 
   17000        33970    318.35152   -5505.3892   -7402.3311    1896.9419    -5984.214   -1418.1172    41.305364    70472.446    452.03482   0.75500413   -5040.8022 
   18000        35970     322.4938   -7847.8779   -9769.5021    1921.6242   -8305.0751    -1464.427     41.18115     69838.58   -414.76408   0.76185667   -8270.3251 
   19000        37970    325.51288   -6171.9523   -8111.5661    1939.6138   -6658.3221    -1453.244    41.058143     69214.63    286.34649   0.76872459   -5882.9072 
   20000        39970    326.22381   -7878.3667   -9822.2167      1943.85   -8333.6317    -1488.585     41.06301     69239.25    -391.3356   0.76845125   -8273.5309 
   21000        41970    323.75586   -5364.3463   -7293.4907    1929.1444    -5940.154   -1353.3367    41.076614    69308.085    1033.4214   0.76768805    -4319.777 
   22000        43970     324.2457   -8262.7506   -10194.814    1932.0632    -8781.136   -1413.6778    41.163822    69750.462   -386.25236   0.76281915   -8655.6616 
   23000        45970    319.08112   -6343.8472   -8245.1365    1901.2893   -6775.8374   -1469.2991    41.114456    69499.814    55.419949   0.76557022   -6287.6744 
   24000        47970    317.49984   -5449.6352   -7341.5022     1891.867   -5837.6323     -1503.87    41.039842     69122.12    316.81979   0.76975342    -5130.257 
   25000        49970    316.80683   -4575.6267   -6463.3643    1887.7376   -5043.0903   -1420.2739    41.007177    68957.198    1013.5785   0.77159441   -3556.3011 
   26000        51970    315.89699   -7295.9162   -9178.2324    1882.3162   -7697.7046   -1480.5279    41.000821    68925.141   -146.41878   0.77195328   -7443.0968 
   27000        53970    327.27446    -8433.298   -10383.408    1950.1104   -8879.0117   -1504.3967    41.031355    69079.246    -741.3884   0.77023116   -9180.2097 
   28000        55970    322.31952   -10686.237   -12606.822    1920.5857   -11148.535   -1458.2871    40.951976    68679.098   -1126.1545    0.7747188   -11814.209 
   29000        57970    326.04828   -7755.8198   -9698.6239    1942.8041   -8238.5474   -1460.0765     40.85557    68195.202   -197.24735   0.78021601   -7951.9936 
   30000        59970    325.25435   -5307.5737    -7245.647    1938.0733   -5790.5829   -1455.0641    40.822197    68028.224    846.02415   0.78213108   -4468.2146 
   31000        61970    325.39786   -7815.9541   -9754.8825    1938.9285   -8330.6177   -1424.2649    40.799612    67915.373     155.8319   0.78343069   -7661.6063 
   32000        63970    322.18914   -8948.0716    -10867.88    1919.8089    -9355.806   -1512.0745    40.763532    67735.355   -643.93415    0.7855128   -9584.1824 
   33000        65970    316.37918   -7465.9105   -9351.0999    1885.1894   -7808.9932   -1542.1067    40.791099    67872.872   -354.02768   0.78392127    -7816.347 
   34000        67970    314.15576   -8735.3687    -10607.31    1871.9409    -9123.517   -1483.7926    40.602569    66936.123   -155.75575   0.79489199   -8887.4167 
   35000        69970    326.39977   -6972.0034   -8916.9018    1944.8985   -7385.8939   -1531.0079    40.621425     67029.42    175.45275    0.7937856   -6800.4886 
   36000        71970    316.62889   -6274.9881   -8161.6655    1886.6774   -6712.7106   -1448.9549    40.642481    67133.705    725.99092   0.79255253   -5564.1877 
   37000        73970    318.12933   -7016.0424   -8911.6603    1895.6179     -7385.88   -1525.7804    40.822481    68029.641    -133.8944   0.78211478   -7148.8847 
   38000        75970    318.51467    -7963.095    -9861.009    1897.9141   -8365.8811   -1495.1279    40.745969     67647.84     -44.0705     0.786529   -8006.5738 
   39000        77970    325.52367    -8451.701   -10391.379    1939.6781   -8897.9329   -1493.4463    40.712402    67480.791   -353.01614   0.78847606   -8799.1177 
   40000        79970    320.79052   -10473.379   -12384.854     1911.475   -10910.363   -1474.4908    40.775764     67796.35   -1127.7678   0.78480609   -11588.448 
   41000        81970     312.8387   -5806.4589   -7670.5519     1864.093   -6192.1407   -1478.4112    40.631961    67081.591    874.36415   0.79316825   -4951.0543 
   42000        83970    324.81572    -8189.012   -10124.472    1935.4597   -8703.3644   -1421.1073    40.622267    67033.587    348.72552   0.79373625   -7848.0923 
   43000        85970    315.31166   -8976.2903   -10855.119    1878.8284   -9371.2162   -1483.9026    40.640329    67123.045   -321.72866   0.79267841   -9291.2371 
   44000        87970    321.37472   -8718.3123   -10633.268     1914.956   -9189.7568   -1443.5116    40.728145    67559.107   -173.94667   0.78756203   -8889.6985 
   45000        89970    322.02928   -8719.8984   -10638.755    1918.8563   -9136.3158   -1502.4389    40.789277    67863.777   -585.93457   0.78402634   -9299.8117 
   46000        91970    328.82376   -8332.7407   -10292.083    1959.3422    -8850.736    -1441.347    40.704697    67442.488   -45.298425   0.78892386   -8377.2953 
   47000        93970    334.65329    -9221.731   -11215.809    1994.0783   -9770.9284   -1444.8808    40.787245    67853.635   -360.64616   0.78414352   -9578.6176 
   48000        95970    320.64402   -8776.4331   -10687.035    1910.6021   -9202.0516   -1484.9836    40.743584    67635.963   -512.64462   0.78666711   -9282.1063 
   49000        97970    330.98159   -7197.1317   -9169.3316    1972.1999   -7700.0616   -1469.2699    40.808857    67961.552    84.820004   0.78289837   -7113.0624 
   50000        99970    322.08753   -7215.5103   -9134.7137    1919.2034   -7653.6578   -1481.0558    40.773475    67784.932    76.897088   0.78493828   -7139.4918 
   51000       101970    322.41576   -8495.7447   -10416.904    1921.1592   -8951.8783   -1465.0256    40.805465    67944.607   -347.50864   0.78309362   -8840.0918 
   52000       103970    310.28148   -7912.9291   -9761.7845    1848.8554   -8298.0975    -1463.687    40.786038    67847.612   -169.64172   0.78421313   -8080.7875 
   53000       105970    306.46769   -8639.7214   -10465.852    1826.1304   -9005.6433   -1460.2085    40.789029    67862.541   -282.61028   0.78404061   -8919.4223 
   54000       107970    315.35055   -8377.6444   -10256.705    1879.0602   -8705.4006    -1551.304    40.835102    68092.759   -781.60078   0.78138981   -9153.8233 
   55000       109970    313.64093   -5206.1693   -7075.0424    1868.8732   -5649.5731   -1425.4693    40.693191    67385.314    1172.2956   0.78959324   -4054.1008 
   56000       111970    330.79697   -4868.7274   -6839.8272    1971.0998   -5346.0862    -1493.741    40.797617    67905.411    767.65179   0.78354563   -4108.4982 
   57000       113970    323.44016   -7830.0358   -9757.2991    1927.2632   -8299.7854   -1457.5137    40.799775    67916.189   -109.59958   0.78342128   -7938.5929 
   58000       115970    329.57849   -6922.2019   -8886.0413    1963.8393   -7403.0813     -1482.96    40.664395    67242.359    313.21344   0.79127189   -6615.0458 
   59000       117970    329.79441   -7110.3947   -9075.5206    1965.1259   -7652.2719   -1423.2487     40.72574    67547.136     443.5761   0.78770162   -6673.4253 
   60000       119970    319.29729   -7046.5906    -8949.168    1902.5774   -7501.0615   -1448.1065     40.77962    67815.588    199.21439   0.78458345   -6849.5635 
   61000       121970    323.79746   -7115.6655   -9045.0577    1929.3922   -7581.9965   -1463.0612      40.7372    67604.175    162.47188   0.78703701   -6955.4783 
   62000       123970    312.04403   -9001.2324    -10860.59    1859.3578   -9381.2412    -1479.349    40.756183    67698.727    -544.5117   0.78593779   -9538.8378 
   63000       125970    323.98889   -7152.1885   -9082.7214    1930.5329   -7611.1567   -1471.5647    40.582502    66836.925    383.36496   0.79607175   -6778.5043 
   64000       127970     322.5583   -6322.4682   -8244.4768    1922.0086   -6761.1821   -1483.2946    40.698304    67410.717     409.5691   0.78929569   -5919.8142 
   65000       129970    326.16417    -5682.251   -7625.7456    1943.4946   -6209.7197   -1416.0259    40.604048    66943.434    1258.7468   0.79480518   -4453.3348 
   66000       131970    321.46811   -9120.6631   -11036.176    1915.5125   -9532.0156   -1504.1601    40.500042    66430.333   -340.27583   0.80094417   -9450.3286 
   67000       133970    314.67912   -4982.7108   -6857.7702    1875.0594   -5312.9948   -1544.7754    40.548741    66670.258    633.65492   0.79806183   -4366.5972 
   68000       135970    315.71201   -7988.7238   -9869.9378     1881.214   -8330.3037   -1539.6342    40.528372    66569.832   -164.17287   0.79926577   -8148.1115 
   69000       137970    326.25215   -6269.3829   -8213.4018    1944.0189   -6779.8292   -1433.5726     40.56623    66756.562    962.67099   0.79703009   -5332.1496 
   70000       139970    319.82623   -7571.9591   -9477.6882    1905.7291   -8047.2321   -1430.4561    40.528586    66570.886    458.20618   0.79925311   -7127.1013 
   71000       141970    318.59279   -7952.2886   -9850.6681    1898.3795   -8369.4289   -1481.2392     40.54101    66632.131    85.730775   0.79851848   -7868.9787 
   72000       143970    304.60282   -10665.853   -12480.871    1815.0183   -10944.934   -1535.9369    40.459097    66229.055   -988.88156   0.80337833   -11620.997 
   73000       145970     326.3576   -8747.7992   -10692.446    1944.6472   -9231.1084    -1461.338    40.572012     66785.11   -140.44054   0.79668938   -8884.5872 
   74000       147970     337.0647   -8596.3613   -10604.808     2008.447   -9080.7352   -1524.0731    40.498105    66420.799   -293.26067   0.80105915   -8880.4368 
   75000       149970     317.3133   -9166.3019   -11057.057    1890.7555   -9559.0286   -1498.0289    40.461522    66240.963   -333.12126   0.80323391   -9488.1159 
   76000       151970    314.60937   -9439.6669   -11314.311    1874.6437   -9799.8111   -1514.4996    40.543757    66645.675   -757.33522    0.7983562   -10175.766 
   77000       153970    326.42546    -7177.733   -9122.7846    1945.0516   -7591.9269   -1530.8577    40.452296    66195.661    253.68374   0.80378363   -6932.8278 
   78000       155970     324.5433   -6246.8713   -8180.7077    1933.8364   -6591.9397    -1588.768    40.469781    66281.538    245.81887   0.80274221   -6009.2509 
   79000       157970    319.28547   -9228.4355   -11130.942     1902.507   -9599.2558   -1531.6867    40.444926    66159.488   -478.69296   0.80422309   -9690.3111 
   80000       159970    325.81921   -6699.0089    -8640.448    1941.4391   -7079.9876   -1560.4604    40.490968    66385.693    124.72656   0.80148276   -6578.2527 
   81000       161970    310.15287   -7351.8555   -9199.9446    1848.0891    -7704.201   -1495.7435    40.494153    66401.357    343.39941   0.80129369    -7019.309 
   82000       163970    320.51606    -5778.059   -7687.8985    1909.8396   -6097.9301   -1589.9685    40.504001    66449.814     236.1632   0.80070936   -5549.1926 
   83000       165970    318.73701    -8821.283   -10720.522    1899.2389   -9224.5461   -1495.9758    40.477165    66317.823   -128.78345     0.802303   -8945.8395 
   84000       167970    322.14976   -5362.5007   -7282.0749    1919.5742   -5768.9736   -1513.1013     40.53694    66612.065    822.02519   0.79875903    -4563.929 
   85000       169970     324.0912   -6128.3056   -8059.4482    1931.1426   -6538.4402    -1521.008    40.481193    66337.622     545.5093   0.80206354   -5600.5438 
   86000       171970    316.36049   -8153.0673   -10038.145    1885.0781   -8509.6395   -1528.5058    40.454261     66205.31    -25.27146   0.80366648   -8177.4678 
   87000       173970    321.49858   -9409.1372   -11324.831     1915.694   -9841.1387   -1483.6926    40.512413    66491.223   -366.95126    0.8002107   -9764.9721 
   88000       175970    318.11531   -8081.6406    -9977.175    1895.5344   -8460.3613   -1516.8137    40.480336    66333.413   -27.817181   0.80211444   -8108.5511 
   89000       177970    318.55019    -7359.412   -9257.5377    1898.1257   -7727.0229   -1530.5148    40.501892    66439.438    93.966522   0.80083441    -7268.363 
   90000       179970    327.91443   -8268.4291   -10222.353    1953.9238   -8688.5184   -1533.8344    40.552776    66690.163   -345.72206   0.79782364    -8604.681 
   91000       181970    322.44167   -7552.0239   -9473.3375    1921.3136   -7992.2215    -1481.116     40.51338    66495.989    285.08799   0.80015335   -7275.5524 
   92000       183970    327.50257    -9753.693   -11705.163    1951.4697    -10215.75    -1489.413    40.564134    66746.214   -692.61231   0.79715365   -10427.899 
   93000       185970    317.63108   -8806.5921   -10699.241     1892.649   -9239.9243   -1459.3168    40.619657    67020.668   -239.94549   0.79388925   -9041.1214 
   94000       187970    322.38347    -8174.192   -10095.159    1920.9668   -8560.9054   -1534.2534    40.564166    66746.371   -390.35334   0.79715178   -8554.1726 
   95000       189970    313.28185   -7790.2999   -9657.0334    1866.7335   -8157.3796   -1499.6538    40.505607     66457.72     72.16938   0.80061411   -7720.3521 
   96000       191970    317.44932   -10460.351   -12351.917     1891.566   -10860.198   -1491.7194    40.568349    66767.022   -1058.2999   0.79690521   -11490.848 
   97000       193970    324.84644   -6766.0411   -8701.6838    1935.6428   -7201.5874   -1500.0964    40.532572    66590.533    428.05631   0.79901731   -6350.3322 
   98000       195970    320.47726   -8009.8084   -9919.4167    1909.6084   -8383.7076   -1535.7091    40.468477    66275.131   -161.31801   0.80281981   -8165.7311 
   99000       197970    319.76756   -9373.1756   -11278.555    1905.3795   -9735.8932   -1542.6619    40.513746     66497.79   -630.16491   0.80013168   -9984.3108 
  100000       199970    323.03716   -8237.9209   -10162.783    1924.8619   -8716.5969   -1446.1859    40.468819    66276.807    324.17385   0.80279951   -7924.5812 
  101000       201970    319.35646     -7575.86   -9478.7899    1902.9299    -7954.091   -1524.6989     40.46496    66257.853    112.01268   0.80302917   -7467.6218 
  102000       203970    321.91395   -6507.2249   -8425.3941    1918.1691   -6893.2012   -1532.1929     40.47639    66314.012     425.9596   0.80234911   -6095.2701 
  103000       205970    316.69693   -8442.9638   -10330.047    1887.0828   -8822.9427   -1507.1039    40.450505    66186.869   -128.01472   0.80389039   -8566.5323 
  104000       207970    321.96702   -8405.1853   -10323.671    1918.4853   -8859.9523   -1463.7184    40.462466    66245.602    125.81912   0.80317767   -8283.6285 
  105000       209970    322.42715   -9209.1459   -11130.373    1921.2271   -9615.8578   -1514.5152    40.505078    66455.115   -515.01325   0.80064549   -9708.2863 
  106000       211970    325.49663   -7117.4728   -9056.9898     1939.517   -7613.0349   -1443.9549    40.544389    66648.792    712.08405   0.79831887    -6425.324 
  107000       213970    325.94249   -6963.5889   -8905.7626    1942.1737   -7470.0919   -1435.6707    40.517737    66517.443    826.92626   0.79989527   -6161.3971 
  108000       215970     317.5159   -7475.4941   -9367.4568    1891.9627   -7844.8794   -1522.5774    40.520361    66530.366    78.649131    0.7997399   -7399.1826 
  109000       217970     316.3385   -7548.4356   -9433.3826     1884.947   -7900.7165   -1532.6661    40.539788    66626.107    24.652924   0.79859069    -7524.481 
  110000       219970    320.61369   -6299.8888   -8210.3101    1910.4213   -6667.2231    -1543.087    40.480604    66334.729    460.26931   0.80209853   -5854.6132 
  111000       221970    326.54385   -6272.2694   -8218.0265     1945.757   -6758.1158   -1459.9106    40.537032    66612.518    780.62468   0.79875359   -5513.9119 
  112000       223970    316.07753   -8951.7348   -10835.127     1883.392   -9364.1482   -1470.9786    40.568607    66768.296   -89.757313   0.79689001   -9039.1357 
  113000       225970    328.49405   -9435.1089   -11392.486    1957.3776   -9908.1852   -1484.3013     40.55843    66718.059   -386.92256   0.79749005   -9811.5901 
  114000       227970    317.20591   -9701.5545    -11591.67    1890.1156   -10088.285   -1503.3847    40.575023    66799.979   -620.27921   0.79651205   -10305.836 
  115000       229970    323.87587   -8678.1837   -10608.043    1929.8595   -9037.0297   -1571.0135    40.542752    66640.721   -488.63349   0.79841556   -9153.0801 
  116000       231970    314.10834   -6607.7277    -8479.386    1871.6583   -7010.2051   -1469.1809    40.463026    66248.351    704.97915   0.80314434   -5926.6021 
  117000       233970    305.41371    -8178.696   -9998.5461    1819.8501   -8532.2945   -1466.2517    40.546276    66658.096    37.162926   0.79820744   -8142.5685 
  118000       235970    329.35543   -11458.967   -13421.477    1962.5102   -11895.284   -1526.1925    40.629587     67069.83   -1429.3835   0.79330733   -12857.111 
  119000       237970    316.99077   -9430.3506   -11319.184    1888.8337   -9789.9522   -1529.2321    40.452811    66198.192   -487.53676   0.80375289   -9901.0346 
  120000       239970    319.00051   -7401.0528   -9301.8617    1900.8089   -7746.8871   -1554.9746    40.524615    66551.324   -63.585589   0.79948805   -7462.7678 
  121000       241970     314.8204    -8909.431   -10785.332    1875.9012   -9293.1301    -1492.202    40.418777    66031.247   -119.79029   0.80578499   -9024.7888 
  122000       243970    310.18351   -6109.4921   -7957.7638    1848.2716   -6423.4024   -1534.3614    40.407756    65977.246    663.77479   0.80644451   -5470.8011 
  123000       245970    322.01499   -7394.9935   -9313.7646    1918.7711   -7774.0138   -1539.7508    40.378322    65833.173    380.14546   0.80820939   -7030.0123 
  124000       247970    329.90549   -8856.5526    -10822.34    1965.7878   -9328.2112   -1494.1292    40.495935    66410.124   -219.61925   0.80118791    -9069.259 
  125000       249970    320.33635   -6584.6514   -8493.4202    1908.7687   -6976.2003   -1517.2198    40.453446    66201.306    464.90076   0.80371508   -6135.7999 
  126000       251970    322.25226    -6440.774    -8360.959     1920.185   -6868.1527   -1492.8063    40.413732    66006.527    772.58971   0.80608676   -5697.0502 
  127000       253970    312.51714   -8052.8345   -9915.0114    1862.1769   -8385.0596   -1529.9518    40.441971    66144.986   -7.2785033   0.80439941   -8059.8558 
  128000       255970    329.90152    -7614.108   -9579.8722    1965.7642   -8068.9609   -1510.9113    40.423032    66052.103    399.22437   0.80553057   -7229.5343 
  129000       257970    323.00716   -9670.8543   -11595.537    1924.6832   -10088.514   -1507.0234    40.461759    66242.129   -439.88727   0.80321978   -10095.818 
  130000       259970    323.86224    -6074.695   -8004.4732    1929.7783   -6534.9589   -1469.5143    40.561227    66731.865    889.63051   0.79732506   -5208.8925 
  131000       261970    312.10687   -7226.0814   -9085.8137    1859.7322   -7554.4416   -1531.3721    40.554095    66696.669    23.154925   0.79774581   -7203.5586 
  132000       263970    320.45952   -9495.0599   -11404.563    1909.5027   -9882.0853   -1522.4774    40.443032    66150.194   -470.81408   0.80433608   -9949.2697 
  133000       265970    325.08434   -9631.8706   -11568.931    1937.0603   -10052.175   -1516.7556    40.565635    66753.623   -638.77496   0.79706517   -10253.739 
  134000       267970    323.77001   -6441.8163    -8371.045    1929.2287   -6933.2199   -1437.8252    40.392989    65904.939    1091.5927    0.8073293   -5392.6255 
  135000       269970    315.90238   -8555.6483   -10437.997    1882.3484   -8961.5811   -1476.4156    40.313896    65518.557    299.93621   0.81209036    -8269.053 
  136000       271970    317.54509   -9134.4446   -11026.581    1892.1366   -9491.8239   -1534.7573    40.439772    66134.198   -449.26089   0.80453063   -9567.7565 
  137000       273970    321.73726   -10612.108   -12529.225    1917.1163   -11001.437   -1527.7874    40.440586    66138.193   -878.15692   0.80448203   -11459.142 
  138000       275970    317.69997   -7045.9189   -8938.9784    1893.0595    -7414.729   -1524.2494    40.414953    66012.508    402.47242   0.80601374   -6658.4488 
  139000       277970    326.15797   -9592.4473   -11535.905    1943.4577   -9965.9569   -1569.9481    40.509337     66476.08   -955.73375   0.80039298   -10519.017 
  140000       279970    317.54908   -5218.2671   -7110.4275    1892.1604   -5550.2206   -1560.2069    40.466641    66266.109    755.71954   0.80292911   -4487.9222 
  141000       281970    328.93883   -9844.4043   -11804.432    1960.0278   -10318.864   -1485.5686    40.484377    66353.277   -361.56154   0.80187431   -10194.285 
  142000       283970    323.79173    -6016.495   -7945.8531    1929.3581   -6455.0505   -1490.8026    40.432983    66100.896    829.14536   0.80493596   -5217.1875 
  143000       285970    312.60078   -7757.3319   -9620.0071    1862.6753   -8078.0959   -1541.9113    40.491049    66386.087    20.532613     0.801478   -7737.4527 
  144000       287970    316.91128   -7348.8723   -9237.2323      1888.36   -7685.4297   -1551.8026     40.49467    66403.902    73.646444   0.80126298   -7277.5506 
  145000       289970    316.03809   -9155.6495   -11038.806     1883.157   -9558.3912   -1480.4153    40.521471    66535.836   -277.27023   0.79967415   -9424.7006 
  146000       291970    327.93491   -8103.7098   -10057.756    1954.0459   -8556.4786   -1501.2771    40.491306    66387.353    43.738354   0.80146272   -8061.3627 
  147000       293970     320.4667   -6717.6981   -8627.2435    1909.5455   -7159.5055   -1467.7381    40.500324    66431.721    743.27703   0.80092744   -5997.5827 
  148000       295970    319.79585   -6855.7034   -8761.2515    1905.5481    -7209.928   -1551.3235     40.44387    66154.306    235.14867   0.80428609   -6628.8337 
  149000       297970    316.51346   -9216.0985   -11102.088    1885.9895   -9574.5587   -1527.5294    40.372853    65806.429   -247.48678   0.80853784   -9453.6164 
  150000       299970     323.5701   -7448.5519   -9376.5894    1928.0375   -7800.2716   -1576.3177    40.464605    66256.106   -158.56644   0.80305034    -7601.771 
  151000       301970    323.88985   -5898.5106   -7828.4534    1929.9428   -6271.9516   -1556.5018    40.511833     66488.37    578.76852   0.80024504   -5337.2992 
  152000       303970    314.31077   -7457.8823   -9330.7468    1872.8645    -7811.843   -1518.9037    40.498928    66424.848    51.721015   0.80101031   -7407.7782 
  153000       305970    316.61017   -7507.2516   -9393.8173    1886.5658   -7818.7251   -1575.0923    40.419556    66035.064    21.177115   0.80573842   -7486.8569 
  154000       307970    322.98362   -9963.2018   -11887.745    1924.5429   -10413.876   -1473.8688     40.60928    66969.315   -682.15297   0.79449802   -10629.446 
  155000       309970    325.73052   -6631.9192   -8572.8299    1940.9107   -7091.8168   -1481.0131    40.525432    66555.347    584.47348   0.79943972   -6064.6051 
  156000       311970    305.17563   -9412.9194   -11231.351    1818.4315   -9763.3091   -1468.0418    40.622765    67036.055   -404.94176   0.79370703   -9808.8115 
  157000       313970    313.63221   -7510.9276   -9379.7488    1868.8212   -7836.9958    -1542.753    40.587964    66863.916   -112.88564   0.79575041   -7621.0071 
  158000       315970    323.35452   -7335.6773   -9262.4302    1926.7529   -7771.5186   -1490.9116    40.511942    66488.904    358.11566   0.80023861   -6988.4224 
  159000       317970    318.47034   -8216.7787   -10114.429    1897.6499   -8695.5237   -1418.9049    40.621146    67028.041    287.89763   0.79380192   -7935.3486 
  160000       319970    323.33802   -6930.3749   -8857.0296    1926.6546   -7350.7511   -1506.2785    40.567017    66760.446    323.01241   0.79698371   -6615.8795 
  161000       321970     331.6664   -7904.3971   -9880.6776    1976.2805   -8389.8983   -1490.7793    40.540897     66631.57    189.80317   0.79852521   -7719.9553 
  162000       323970    315.31498   -6341.9587    -8220.807    1878.8482   -6755.7656   -1465.0414    40.589859    66873.283    751.75826   0.79563894   -5608.7853 
  163000       325970    320.89596   -9391.7635   -11303.867    1912.1033   -9702.2541   -1601.6127    40.542317    66638.575    -987.4408   0.79844127   -10351.413 
  164000       327970    320.57651   -9006.6821   -10916.882    1910.1998   -9363.0222   -1553.8597    40.572092    66785.505   -510.82588   0.79668468   -9504.2255 
  165000       329970    318.71023   -7710.0893   -9609.1685    1899.0793   -8119.7777   -1489.3908    40.484906    66355.879    291.48387   0.80184286   -7428.0109 
  166000       331970    332.83382   -7759.4824    -9742.719    1983.2367   -8184.0565   -1558.6625    40.633158    67087.521   -345.46497   0.79309815   -8097.4862 
  167000       333970    320.21614   -7848.4401   -9756.4926    1908.0525   -8231.3181   -1525.1745    40.615109    66998.157    -282.8981     0.794156   -8124.8597 
  168000       335970    316.12124   -7181.3543   -9065.0068    1883.6525   -7597.1123   -1467.8945    40.507774    66468.387    500.98839   0.80048562   -6695.7096 
  169000       337970    319.25964   -7895.3996   -9797.7526    1902.3531   -8300.0672   -1497.6854     40.53816    66618.077   -60.820088   0.79868694   -7954.4897 
  170000       339970    331.07783   -5495.9858   -7468.7592    1972.7734   -5995.3885   -1473.3707    40.534296     66599.03    1007.7513   0.79891536   -4517.1786 
  171000       341970    330.90735   -10099.099   -12070.857    1971.7575   -10561.204   -1509.6532    40.467934    66272.459    -663.4972   0.80285218    -10740.38 
  172000       343970    316.31368   -8086.9618    -9971.761    1884.7991    -8478.063    -1493.698    40.456527    66216.436    152.99886   0.80353144    -7939.211 
  173000       345970    318.31379   -8394.6713   -10291.388    1896.7171   -8766.9064    -1524.482    40.484079    66351.813   -259.63869     0.801892   -8645.9167 
  174000       347970    326.29856   -8865.2714   -10809.567    1944.2954   -9363.9039    -1445.663    40.539284    66623.621    31.286309   0.79862048   -8834.8725 
  175000       349970     314.6858    -9849.603   -11724.702    1875.0992   -10201.123   -1523.5794    40.419511    66034.844   -620.72253    0.8057411    -10447.39 
  176000       351970    321.39214   -9288.6554   -11203.715    1915.0598   -9688.4441   -1515.2711    40.495935    66410.123   -420.62896   0.80118792   -9696.0445 
  177000       353970    318.69346   -7545.0836   -9444.0629    1898.9794   -7982.8052   -1461.2577    40.441223    66141.319    513.20566   0.80444401   -7050.0437 
  178000       355970    320.46577   -7177.0888   -9086.6287    1909.5399   -7558.2663   -1528.3624    40.466014    66263.029    198.46742   0.80296643   -6985.2942 
  179000       357970    328.16298   -9467.9144   -11423.319    1955.4048   -9848.3387   -1574.9806    40.562688    66739.076   -915.79158   0.79723891   -10359.274 
  180000       359970    320.34267   -9573.6377   -11482.444    1908.8064   -9947.0958   -1535.3483     40.44603    66164.906   -595.28419   0.80415724   -10148.056 
  181000       361970    312.66041   -4667.8357   -6530.8663    1863.0306   -5056.6492   -1474.2171     40.44318     66150.92    1456.2253   0.80432726   -3262.9521 
  182000       363970    323.02434   -7720.8446   -9645.6301    1924.7855   -8148.9073   -1496.7229    40.470947    66287.265     181.6507   0.80267286   -7545.2371 
  183000       365970    318.13243   -5704.6388   -7600.2752    1895.6364   -6107.2272    -1493.048    40.530902    66582.303     865.2201   0.79911607   -4864.4801 
  184000       367970    336.04142   -8700.9433   -10703.293    2002.3496   -9197.9792   -1505.3136    40.506806    66463.621   -187.60717   0.80054302   -8882.7916 
  185000       369970    321.28429    -6055.731   -7970.1482    1914.4172   -6460.7192   -1509.4289    40.408599    65981.377    794.32435   0.80639402   -5291.3759 
  186000       371970    313.13721   -5233.2259   -7099.0975    1865.8717   -5588.0991   -1510.9985    40.498527    66422.877     888.8665   0.80103408   -4372.1724 
  187000       373970    322.18159   -8192.4818   -10112.246    1919.7639   -8616.3334   -1495.9123     40.43249    66098.476    66.244318   0.80496542   -8128.6237 
  188000       375970    310.49965   -5460.5569   -7310.7123    1850.1554   -5782.5352   -1528.1771    40.460016    66233.568    688.69374    0.8033236   -4795.3141 
  189000       377970    329.62562   -9689.3847   -11653.505    1964.1201   -10113.969   -1539.5363    40.430385    66088.157   -675.63257   0.80509112   -10340.578 
  190000       379970    321.38361   -6809.3748   -8724.3838     1915.009   -7168.1258    -1556.258    40.459691    66231.974    132.81318   0.80334293   -6681.0872 
  191000       381970    319.96086   -8285.8378   -10192.369    1906.5313   -8643.6808   -1548.6883    40.472971     66297.21    -289.1345   0.80255245   -8565.3952 
  192000       383970    323.23082   -9080.7531   -11006.769    1926.0159   -9517.3911    -1489.378     40.49332     66397.26   -215.19277   0.80134313    -9289.132 
  193000       385970    320.07802   -9139.0717   -11046.301    1907.2295   -9462.6229   -1583.6782    40.488173    66371.942   -755.40199    0.8016488   -9870.2756 
  194000       387970    315.86231    -7628.742   -9510.8516    1882.1096   -7900.1476    -1610.704    40.441348    66141.933    -367.0823   0.80443655   -7982.8341 
  195000       389970    314.85932   -7280.6818   -9156.8149    1876.1331   -7620.8913   -1535.9236    40.456738    66217.469    97.397191    0.8035189    -7186.624 
  196000       391970    307.74981   -10471.895   -12305.665    1833.7701   -10706.471   -1599.1943    40.470893    66287.001   -1334.4102   0.80267605   -11761.907 
  197000       393970    318.50965    -9633.377   -11531.261    1897.8841    -10009.76   -1521.5015    40.436828    66119.755   -489.41523   0.80470637   -10105.315 
  198000       395970    318.47548   -8839.0099    -10736.69    1897.6805   -9291.5688   -1445.1216    40.387121    65876.225    273.57829    0.8076812   -8576.1731 
  199000       397970    323.28904   -7341.6589   -9268.0217    1926.3628   -7801.9271   -1466.0946    40.483687    66349.887    597.90471   0.80191527   -6763.0993 
  200000       399970    320.20951   -9491.4127   -11399.426     1908.013   -9917.4794   -1481.9463    40.414854    66012.025   -201.19818   0.80601963   -9685.1098 
  201000       401970    312.22232   -8628.0448   -10488.465    1860.4202   -8962.5369   -1525.9281    40.426371    66068.474   -233.84001   0.80533097   -8853.3593 
  202000       403970    321.96311   -11276.416   -13194.878    1918.4621   -11645.222   -1549.6555    40.391766    65898.955   -1173.7424    0.8074026   -12404.463 
  203000       405970    308.76642     -9476.99   -11316.818    1839.8277   -9798.1133   -1518.7045    40.374345    65813.724   -300.80485   0.80844822   -9765.7103 
  204000       407970    319.40266   -6757.2473   -8660.4525    1903.2052   -7140.5399   -1519.9126    40.278106    65344.209    808.54054   0.81425712   -5986.7257 
  205000       409970    320.14213   -7247.5153   -9155.1268    1907.6115   -7556.2682   -1598.8586    40.390149    65891.041    36.099255   0.80749958   -7212.8256 
  206000       411970    328.17287   -5402.7021   -7358.1659    1955.4638   -5770.5683   -1587.5976     40.37967     65839.77    754.74928   0.80812841   -4677.9877 
  207000       413970    315.32665   -7533.3694   -9412.2872    1878.9178   -7902.3427   -1509.9445    40.360749    65747.259    410.98151    0.8092655   -7139.2972 
  208000       415970    308.44872   -8628.7089   -10466.644    1837.9346   -8885.5367   -1581.1068    40.373686    65810.502   -296.98799    0.8084878   -8913.7517 
  209000       417970     326.7341   -9564.0934   -11510.984    1946.8906   -9958.9267   -1552.0573    40.449273    66180.824   -668.80109   0.80396382   -10209.606 
  210000       419970    324.12508   -9563.8116   -11495.156    1931.3445   -9924.6563   -1570.4997     40.46459    66256.033    -774.1065   0.80305122   -10311.812 
  211000       421970     318.9144   -8930.6068   -10830.903    1900.2959    -9320.908   -1509.9946    40.507097    66465.054   -263.64712   0.80052576   -9186.1664 
  212000       423970    313.59207   -8345.5753   -10214.157     1868.582    -8731.774   -1482.3834    40.456226    66214.959     57.62789   0.80354936   -8289.9254 
  213000       425970    318.12445   -7960.1706   -9855.7595    1895.5889   -8343.7357   -1512.0237    40.562568     66738.48   -92.304972   0.79724603   -8050.0122 
  214000       427970     323.3622   -8270.5279   -10197.327    1926.7987   -8650.7311   -1546.5955     40.49011    66381.469   -305.66762   0.80153375   -8566.4464 
  215000       429970    317.34648   -8220.4613   -10111.414    1890.9532   -8608.8514   -1502.5631    40.462634    66246.426    129.58906   0.80316768   -8095.2606 
  216000       431970    314.54196     -9268.67   -11142.912    1874.2421   -9637.6304   -1505.2817    40.516807    66512.863   -357.48743   0.79995035   -9615.4406 
  217000       433970     319.7795   -8571.1729   -10476.624    1905.4507   -9010.4826    -1466.141    40.516277    66510.254    9.7401178   0.79998174   -8561.7251 
  218000       435970    329.23198   -7170.7473   -9132.5219    1961.7746   -7683.3283   -1449.1936    40.499573    66428.023    642.02469   0.80097202   -6548.7637 
  219000       437970    326.34183   -9083.8788   -11028.432    1944.5533   -9507.1441   -1521.2881    40.502508    66442.467   -358.13653    0.8007979   -9430.9114 
  220000       439970    326.71687   -7798.2139   -9745.0019     1946.788   -8235.2459   -1509.7559    40.537643    66615.529    15.588639    0.7987175   -7783.0692 
  221000       441970    319.85368   -7580.0708   -9485.9635    1905.8927   -7957.9294   -1528.0341    40.527238    66564.244    51.622005   0.79933286   -7529.9576 
  222000       443970    321.05595   -6768.8481   -8681.9047    1913.0566   -7223.9285   -1457.9762    40.483752    66350.207    692.55283   0.80191141   -6098.6996 
  223000       445970    321.38993   -6780.3976   -8695.4442    1915.0467   -7167.0112   -1528.4331     40.53154    66585.446    360.27842   0.79907835   -6430.5382 
  224000       447970    324.58162   -7322.7506   -9256.8153    1934.0648    -7722.576   -1534.2394     40.46805     66273.03    197.67102   0.80284526   -7131.6967 
  225000       449970    318.43963   -7876.4276   -9773.8945    1897.4669   -8240.2835    -1533.611     40.65473    67194.424   -332.98609   0.79183636   -8202.7412 
  226000       451970    329.53994    -6313.368   -8276.9776    1963.6096   -6702.3808   -1574.5968    40.568829    66769.389    1.1553182   0.79687696    -6312.243 
  227000       453970    322.01911   -7941.6603    -9860.456    1918.7957   -8367.0828   -1493.3732    40.469309    66279.219    84.099325    0.8027703   -7860.3687 
  228000       455970    325.03885   -7017.4608     -8954.25    1936.7893   -7441.5125   -1512.7375    40.433952    66105.649    437.27787   0.80487809   -6595.8886 
  229000       457970    322.07464   -8068.0442   -9987.1708    1919.1266   -8480.5875   -1506.5833    40.494486    66402.998   -71.078666   0.80127389   -8136.8782 
  230000       459970    318.50371   -7583.1768   -9481.0255    1897.8487   -8018.7375    -1462.288    40.487019    66366.268    302.97516   0.80171735    -7289.932 
  231000       461970     324.3612   -8709.1609   -10641.912    1932.7514   -9127.0421   -1514.8703    40.578441     66816.86   -438.78992   0.79631082   -9136.7421 
  232000       463970    320.70592   -10630.265   -12541.235    1910.9709   -11108.811   -1432.4247    40.571175    66780.977   -639.96309   0.79673869   -11253.545 
  233000       465970    324.02325   -9032.7965   -10963.534    1930.7377     -9476.29   -1487.2442    40.478674    66325.241   -226.32366   0.80221327   -9251.7161 
  234000       467970    323.31942   -7600.5887   -9527.1325    1926.5438    -8019.679   -1507.4535    40.519984    66528.511    105.41458    0.7997622   -7498.3102 
  235000       469970    321.11721   -8020.5772   -9933.9989    1913.4216   -8383.6707   -1550.3282     40.46046     66235.75   -178.56346   0.80329713   -8193.0661 
  236000       471970    323.66515   -7402.6934   -9331.2973    1928.6039   -7829.8916   -1501.4057    40.392407     65902.09    375.77576    0.8073642   -7041.5299 
  237000       473970    318.26702   -9046.0033   -10942.442    1896.4384   -9475.5356    -1466.906    40.363016     65758.34   -18.382178   0.80912912   -9063.6321 
  238000       475970    324.61403   -6213.0759   -8147.3338    1934.2579   -6625.5237   -1521.8102     40.46851    66275.293    549.50019   0.80281785   -5681.9526 
  239000       477970    320.46954   -7914.4604   -9824.0228    1909.5624   -8280.9052   -1543.1175    40.471171    66288.364    -252.4483   0.80265954   -8158.5142 
  240000       479970     325.5194   -8287.4671    -10227.12    1939.6527   -8761.1167   -1466.0031    40.430655    66089.482     190.2471   0.80507498    -8104.098 
  241000       481970    317.59439   -5465.0859   -7357.5164    1892.4304   -5835.5129   -1522.0035    40.441832    66144.306     837.1589   0.80440769   -4657.5232 
  242000       483970    320.11877   -9821.7603   -11729.233    1907.4723   -10270.574   -1458.6585    40.444487    66157.334   -425.39507   0.80424928   -10232.197 
  243000       485970    319.74158   -8719.2566   -10624.481    1905.2247   -9113.4598   -1511.0215    40.462502    66245.777    -445.5043   0.80317554   -9149.6702 
  244000       487970    320.47955    -7728.388     -9638.01     1909.622   -8172.6782   -1465.3319    40.423333    66053.582    431.66025   0.80551253   -7312.5594 
  245000       489970    327.71414   -9452.6632   -11405.394    1952.7304   -9930.2702   -1475.1234    40.386727    65874.296   -215.61955   0.80770484   -9659.8108 
  246000       491970    308.67717   -8876.2162   -10715.512    1839.2959   -9241.1839   -1474.3283    40.396282    65921.063   -40.406944   0.80713183   -8915.0631 
  247000       493970    321.30033   -9549.4426   -11463.955    1914.5128   -9976.7021   -1487.2533    40.429567    66084.143   -368.91598   0.80514002   -9904.9926 
  248000       495970    312.34432   -6280.0954   -8141.2425    1861.1471    -6587.392   -1553.8505    40.453581    66201.971    375.32784   0.80370701   -5917.7209 
  249000       497970    319.13808   -8184.4548   -10086.084    1901.6287   -8658.8883   -1427.1952    40.464234    66254.286     366.2113   0.80307239   -7830.6029 
  250000       499970    317.88446    -7977.015   -9871.1738    1894.1588   -8366.2654   -1504.9084    40.365724    65771.573    137.52025   0.80896634    -7845.104 
  251000       501970    335.48328    -8786.015   -10785.039    1999.0239   -9440.8599    -1344.179    40.373062    65807.453    661.14613   0.80852526   -8151.4904 
  252000       503970    320.79718   -8393.2749    -10304.79    1911.5147   -8787.1434   -1517.6461    40.337906    65635.688    10.856784   0.81064113   -8382.8824 
  253000       505970    317.61933   -6745.9803   -8638.5593     1892.579   -7157.2059   -1481.3534    40.339136    65641.694    716.29184   0.81056696   -6060.2621 
  254000       507970    320.15563   -7866.5795   -9774.2714    1907.6919   -8291.9301   -1482.3413     40.41283    66002.103    202.16192    0.8061408   -7671.9839 
  255000       509970    318.29511   -7957.1892   -9853.7949    1896.6058   -8323.4276   -1530.3673    40.345499    65672.761    100.84715   0.81018351   -7860.6008 
  256000       511970    315.48615   -11033.536   -12913.404    1879.8682   -11420.829   -1492.5745    40.304038    65470.506    -682.5914   0.81268638   -11685.288 
  257000       513970    319.45411   -8773.4835   -10676.995    1903.5118   -9178.7151   -1498.2802    40.343986    65665.371    54.959989    0.8102747   -8720.8504 
  258000       515970     317.5769   -9830.3265   -11722.653    1892.3262   -10188.686   -1533.9664    40.436161    66116.485   -748.62738   0.80474617   -10552.184 
  259000       517970    337.17231   -8053.9447   -10063.033    2009.0882   -8509.9021   -1553.1308    40.463925    66252.767   -177.15624   0.80309081   -8225.1182 
  260000       519970    316.34983   -7275.7384    -9160.753    1885.0145   -7642.6419   -1518.1111    40.439877    66134.715    214.84015   0.80452434   -7068.5236 
  261000       521970    322.66016   -8083.5426   -10006.158    1922.6155    -8554.303   -1451.8551    40.410802     65992.17    261.11162   0.80626214   -7832.2414 
  262000       523970    323.23564    -9146.993   -11073.038    1926.0446   -9559.3204   -1513.7172    40.500126    66430.745   -489.75848   0.80093921   -9621.4829 
  263000       525970    319.94701   -10276.387   -12182.836    1906.4488   -10682.345   -1500.4917    40.430362    66088.045   -696.77746   0.80509249    -10947.96 
  264000       527970    321.33483   -9555.6086   -11470.327    1914.7183    -9963.668   -1506.6589    40.439346     66132.11   -498.11361   0.80455603   -10036.024 
  265000       529970    314.49249   -8477.6658   -10351.613    1873.9473   -8821.6534   -1529.9597    40.427405    66073.545   -189.79663   0.80526916   -8660.5566 
  266000       531970    325.21472   -8095.2945   -10033.132    1937.8372     -8483.76   -1549.3716    40.480196    66332.722   -251.82453   0.80212279   -8338.9082 
  267000       533970     322.3515   -8585.4306   -10506.207    1920.7763   -9004.2546   -1501.9524    40.440022    66135.426   -151.39596    0.8045157   -8731.4547 
  268000       535970    319.17556   -8727.2296   -10629.082     1901.852   -9177.3493   -1451.7323    40.489356    66377.763   -17.745595   0.80157851   -8744.4083 
  269000       537970    324.74753   -5991.4898   -7926.5431    1935.0534   -6418.3614   -1508.1818    40.454484    66206.401    718.03276   0.80365323   -5298.1915 
  270000       539970    320.22056   -9333.3764   -11241.455    1908.0788    -9702.284   -1539.1712    40.470754    66286.315    -713.9779   0.80268435   -10023.592 
  271000       541970    319.70307   -6639.4762   -8544.4714    1904.9953   -7084.2042   -1460.2672    40.485055    66356.614    647.56694   0.80183399   -6012.7977 
  272000       543970    329.21632   -7754.2948   -9715.9761    1961.6813   -8263.2945   -1452.6816    40.510176    66480.211    289.25201   0.80034325   -7473.8518 
  273000       545970    325.37362    -7820.105    -9758.889    1938.7841   -8244.1815   -1514.7075    40.553543    66693.945   -185.58097   0.79777839   -8000.6127 
  274000       547970    318.08187   -6911.9049     -8807.24    1895.3351   -7328.7686   -1478.4714    40.519212    66524.707    411.93871   0.79980793   -6512.2442 
  275000       549970    321.00061   -7316.5744   -9229.3013    1912.7269   -7653.7409   -1575.5604    40.530608    66580.854    -236.7757   0.79913346   -7546.4868 
  276000       551970    322.71988   -9746.6915   -11669.663    1922.9713   -10157.003     -1512.66    40.475871    66311.462   -702.64912   0.80237996   -10426.213 
  277000       553970    323.34145   -7832.0213   -9758.6964     1926.675   -8223.0678   -1535.6286    40.490325     66382.53      -217.92   0.80152094   -8042.9943 
  278000       555970    320.41804   -9584.5179   -11493.773    1909.2555   -9980.0938   -1513.6796    40.422432    66049.162   -575.34358   0.80556644   -10138.723 
  279000       557970    322.66225   -8328.9234   -10251.551    1922.6279   -8743.2589   -1508.2925    40.386981    65875.537   -106.83001   0.80768963   -8431.5579 
  280000       559970    324.85709   -7567.8911   -9503.5973    1935.7062   -8011.4246   -1492.1727    40.421661    66045.383    138.30459   0.80561253   -7434.6755 
  281000       561970     313.7782    -10382.29   -12251.981    1869.6911   -10729.535   -1522.4457    40.513374    66495.956   -1104.5898   0.80015375   -11453.494 
  282000       563970    325.76903   -6769.4462   -8710.5863    1941.1402   -7226.4754    -1484.111    40.432609    66099.061     648.5763   0.80495831    -6144.227 
  283000       565970    309.56436   -7788.1683   -9632.7507    1844.5823    -8105.566   -1527.1847    40.475687    66310.557   -77.584961   0.80239091   -7863.1985 
  284000       567970    321.07107   -9400.0393   -11313.186    1913.1467   -9736.3595   -1576.8265    40.476134    66312.756    -835.4667    0.8023643   -10208.022 
  285000       569970     332.5847   -8154.8235   -10136.576    1981.7523   -8571.8276   -1564.7481    40.427625    66074.621   -284.48564   0.80525604   -8428.9625 
  286000       571970    320.30672   -9077.2152   -10985.807    1908.5922   -9458.2878   -1527.5196    40.350969    65699.476    -431.0103   0.80985408   -9490.1918 
  287000       573970    320.47405   -8460.1622   -10369.751    1909.5893   -8834.3052   -1535.4462    40.468057    66273.065   -263.39667   0.80284484   -8714.7415 
  288000       575970     317.3016   -7887.9901   -9778.6759    1890.6858   -8289.1404   -1489.5355    40.404575    65961.666    252.36341     0.806635   -7645.2207 
  289000       577970    321.55149   -7800.2407     -9716.25    1916.0093   -8207.7387   -1508.5113    40.432556    66098.802     138.7792   0.80496145   -7666.4598 
  290000       579970    312.54363    -9851.154   -11713.489    1862.3347   -10250.297   -1463.1919     40.46804    66272.983   -291.77007   0.80284583   -10133.157 
  291000       581970    313.35365   -11039.553   -12906.715    1867.1614   -11415.827   -1490.8874    40.342419    65657.723    -757.3855   0.81036907   -11764.788 
  292000       583970    320.75037   -8378.5497   -10289.785    1911.2357   -8814.0768   -1475.7086    40.427538    66074.193    81.591644   0.80526126    -8299.926 
  293000       585970    324.44147   -8357.7322   -10290.962    1933.2297   -8839.6104   -1451.3514    40.417957    66027.227    255.90773   0.80583405   -8111.3086 
  294000       587970    315.16399   -8147.7054   -10025.654    1877.9485   -8537.1673   -1488.4866    40.397882    65928.895    174.17839   0.80703595   -7980.2319 
  295000       589970    326.35623   -8751.9214    -10696.56    1944.6391   -9194.6521   -1501.9084    40.421503    66044.607   -203.11134   0.80562199   -8947.5568 
  296000       591970    323.83118    -7528.358   -9457.9512    1929.5932   -8015.7649   -1442.1864    40.315107    65524.459    778.32732   0.81201721    -6784.583 
  297000       593970     318.6746   -6293.2111    -8192.078     1898.867   -6672.2114   -1519.8666    40.368039    65782.894     665.8136   0.80882712   -5654.4454 
  298000       595970    327.82441   -5272.8387   -7226.2261    1953.3874   -5692.6904   -1533.5357     40.42542    66063.809    820.95184   0.80538784   -4481.8738 
  299000       597970    310.97959   -7083.0399   -8936.0552    1853.0152   -7371.0121    -1565.043    40.430477    66088.608    129.38483   0.80508562   -6958.3344 
  300000       599970    324.86378   -8958.8403   -10894.586    1935.7461   -9346.8651   -1547.7213    40.460223    66234.583   -571.07759   0.80331129   -9510.4804 
  301000       601970    321.47513   -9197.9079   -11113.462    1915.5544   -9609.1786   -1504.2836    40.366788    65776.777   -265.31381   0.80890233   -9452.4199 
  302000       603970    326.43411   -8659.5475   -10604.651    1945.1031   -9038.8897   -1565.7608    40.312712    65512.784     -325.433   0.81216191   -8970.4781 
  303000       605970    319.33133   -6990.5327   -8893.3129    1902.7802   -7350.0471   -1543.2658    40.325546    65575.372    408.01298   0.81138675   -6600.3297 
  304000       607970    316.95016   -6039.1304   -7927.7221    1888.5917   -6506.5204   -1421.2017    40.338596    65639.058    1272.6865   0.81059951   -4820.8152 
  305000       609970    314.87202   -6888.5438   -8764.7526    1876.2088   -7243.1893   -1521.5633    40.365184    65768.937    410.15925   0.80899875   -6495.1304 
  306000       611970    329.21212   -6529.8945   -8491.5508    1961.6563   -6972.8412   -1518.7096    40.324461    65570.081    740.77238   0.81145223   -5821.5144 
  307000       613970    323.44042   -10071.169   -11998.434    1927.2648   -10486.191   -1512.2435    40.251883    65216.665    -367.8998   0.81584956   -10421.085 
  308000       615970    318.01927   -8816.0708   -10711.033    1894.9621   -9130.0176   -1581.0152    40.322213    65559.116   -463.21602   0.81158794   -9258.9574 
  309000       617970     318.3132    -4970.176   -6866.8895    1896.7135   -5374.5593   -1492.3302    40.223543    65079.014    1551.6443    0.8175752   -3497.4938 
  310000       619970    328.05568   -10458.119   -12412.884    1954.7655   -10918.529   -1494.3549    40.322634     65561.17   -381.31426   0.81156252   -10822.709 
  311000       621970    326.38354   -9426.0371   -11370.839    1944.8018   -9795.3831   -1575.4558    40.285165    65378.575   -564.42564   0.81382912   -9964.2054 
  312000       623970    323.16015   -7545.7972    -9471.392    1925.5948   -7919.8555   -1551.5365    40.364974    65767.908    214.64409   0.80901141   -7339.9197 
  313000       625970    321.78267   -7983.3307   -9900.7176    1917.3869   -8363.9139   -1536.8037    40.283426    65370.106    187.21829   0.81393456   -7804.8451 
  314000       627970    334.90579   -7872.4128   -9867.9956    1995.5828   -8430.0248   -1437.9708    40.357805    65732.871     674.3749   0.80944263   -7225.9256 
  315000       629970    311.44813   -9382.6267   -11238.434    1855.8071   -9739.1295   -1499.3043    40.375214    65817.974   -259.96155   0.80839602   -9632.1606 
  316000       631970    314.56181   -9090.8783   -10965.239    1874.3603   -9421.3717   -1543.8669    40.337728    65634.819   -118.26717   0.81065186   -9204.0856 
  317000       633970    329.50278   -10066.991   -12030.379    1963.3882   -10509.575   -1520.8043    40.411387    65995.035   -658.84571   0.80622713    -10701.11 
  318000       635970    331.32509   -9865.8172   -11840.064    1974.2467   -10341.044   -1499.0203    40.422177    66047.912   -432.38554   0.80558169   -10282.309 
  319000       637970    315.46673   -10454.852   -12334.605    1879.7524   -10804.762   -1529.8422    40.468207    66273.803   -763.31791    0.8028359   -11192.626 
  320000       639970    320.36764   -9054.9249    -10963.88    1908.9552   -9445.4583   -1518.4218    40.414603    66010.792   -293.39093   0.80603468   -9337.3722 
  321000       641970     315.4747   -10404.236   -12284.036       1879.8   -10763.892   -1520.1439    40.441423    66142.301   -782.75885   0.80443207   -11159.299 
  322000       643970    309.59726   -10429.627   -12274.405    1844.7784    -10737.17   -1537.2356    40.378154    65832.354   -735.23303   0.80821944   -11135.522 
  323000       645970    321.12768   -10441.812   -12355.296     1913.484    -10813.63   -1541.6663    40.415695    66016.142   -815.32426   0.80596936   -11226.788 
  324000       647970    325.18427   -6988.4903   -8926.1461    1937.6557   -7390.6317   -1535.5144    40.422345    66048.736    248.75447   0.80557163   -6748.8768 
  325000       649970    318.26681   -10047.437   -11943.874    1896.4371   -10423.868   -1520.0062     40.37127     65798.69   -556.08962   0.80863294   -10581.064 
  326000       651970    314.05985   -8173.9968   -10045.366    1871.3694   -8603.0954   -1442.2708    40.327256    65583.717    723.54777   0.81128351   -7481.9442 
  327000       653970    316.22468   -10826.797   -12711.066    1884.2688   -11217.553   -1493.5124    40.444097    66155.422   -711.15513   0.80427252   -11512.926 
  328000       655970    322.34576   -10576.307   -12497.049    1920.7421   -10983.788   -1513.2605    40.517557    66516.558   -968.22574   0.79990591   -11515.559 
  329000       657970    328.17749   -8527.6914   -10483.183    1955.4913   -9063.7692   -1419.4134    40.396644    65922.835    546.89865   0.80711013   -8001.8938 
  330000       659970    314.93411   -7259.6579   -9136.2367    1876.5787   -7593.7267     -1542.51    40.456234    66214.994    113.56678   0.80354894    -7149.989 
  331000       661970    310.77638    -6694.892   -8546.6963    1851.8043   -7020.8874    -1525.809    40.443129    66150.669     482.3589   0.80433031   -6229.5412 
  332000       663970    325.05521     -8562.84   -10499.727    1936.8867   -8990.2781   -1509.4486    40.541328    66633.696   -228.36021   0.79849972   -8784.7568 
  333000       665970    323.54841   -7830.4405   -9758.3487    1927.9082   -8273.2064   -1485.1423     40.43824    66126.684    217.50967   0.80462205   -7620.6763 
  334000       667970    330.26339   -10142.066   -12109.986    1967.9204   -10612.487   -1497.4995    40.440897     66139.72   -585.60122   0.80446346   -10706.925 
  335000       669970    328.73215   -9381.1239    -11339.92    1958.7963    -9752.454   -1587.4662    40.430635    66089.384   -678.50258   0.80507617   -10035.096 
  336000       671970    314.74121   -8646.2849   -10521.714    1875.4293    -8972.499   -1549.2153    40.437125    66121.212    -342.5786   0.80468864   -8976.6369 
  337000       673970    328.99941   -8110.2151   -10070.604    1960.3888   -8544.2924   -1526.3115    40.449774    66183.284    18.514386   0.80393394   -8092.3447 
  338000       675970    328.83729   -8561.9498   -10521.373    1959.4228   -8966.2864   -1555.0863    40.383246    65857.262   -203.46653   0.80791376   -8757.3714 
  339000       677970    318.46884   -8204.5625   -10102.203    1897.6409   -8613.0539   -1489.1495    40.489729    66379.596    44.085633   0.80155637   -8161.8842 
  340000       679970    309.83058   -9967.4124   -11813.581    1846.1686   -10306.716   -1506.8649     40.41373    66006.516   -497.41132    0.8060869   -10446.239 
  341000       681970    320.09008    -8755.416   -10662.717    1907.3013   -9153.8575   -1508.8598    40.389177    65886.284   -99.423012   0.80755788   -8850.9499 
  342000       683970    325.34009   -8675.1117   -10613.696    1938.5843   -9105.3977   -1508.2983    40.363382    65760.129   -7.5539697   0.80910711   -8682.3563 
  343000       685970    324.26967   -9454.1113   -11386.317     1932.206   -9883.8969   -1502.4204    40.478073    66322.284   -503.31839   0.80224903   -9940.9422 
  344000       687970    322.08578   -8961.1417   -10880.335     1919.193   -9394.4841   -1485.8507    40.484133     66352.08   -160.56253   0.80188877   -9116.5144 
  345000       689970    328.91676   -7582.3363   -9542.2326    1959.8963   -8120.5401   -1421.6925     40.34497    65670.177    910.21266   0.81021539   -6710.5963 
  346000       691970    328.41264   -8892.6358   -10849.528    1956.8925   -9396.2848   -1453.2435    40.413157    66003.707    148.62187   0.80612121    -8749.573 
  347000       693970    323.80432   -9795.3966    -11724.83    1929.4332   -10162.008   -1562.8221    40.394552    65912.591   -711.67735   0.80723557   -10479.509 
  348000       695970    326.09265   -7662.6672   -9605.7356    1943.0684    -8134.261   -1471.4746    40.451793    66193.191    486.54382   0.80381361   -7192.9773 
  349000       697970    312.40061   -8974.7616   -10836.244    1861.4826    -9396.157   -1440.0871    40.366833    65776.993    255.76714   0.80889967   -8729.4068 
  350000       699970    332.30664   -10000.763   -11980.859    1980.0954   -10459.908   -1520.9505    40.528321    66569.583   -748.81584   0.79926876    -10727.75 
  351000       701970    323.31148   -6780.2432   -8706.7397    1926.4965   -7170.8649   -1535.8748    40.441101    66140.717    369.96112   0.80445133   -6423.3808 
  352000       703970    321.36863   -9318.2216   -11233.141    1914.9197   -9716.3886   -1516.7527    40.527219    66564.154   -444.58381   0.79933395   -9749.8101 
  353000       705970    326.12668    -7219.649   -9162.9202    1943.2712   -7673.7666   -1489.1536    40.523226     66544.48    309.64003   0.79957028   -6919.1486 
  354000       707970    318.02391    -9700.134   -11595.124    1894.9898   -10116.185   -1478.9385    40.526417    66560.203   -489.83169   0.79938139    -10175.62 
  355000       709970    337.63186   -8324.6655   -10336.492    2011.8265   -8752.7832   -1583.7088    40.533542    66595.312   -499.48935   0.79895997   -8809.7817 
  356000       711970    321.98373    -10846.64   -12765.225    1918.5849   -11242.742   -1522.4828    40.461662     66241.65   -869.49738   0.80322559   -11686.632 
  357000       713970    320.86449   -8555.4794   -10467.395    1911.9157    -8926.448   -1540.9471    40.371267    65798.676   -122.07419   0.80863312   -8672.6225 
  358000       715970    318.27676   -7091.7269   -8988.2234    1896.4964   -7447.3169   -1540.9064    40.318352    65540.286    520.93276   0.81182112   -6593.7997 
  359000       717970    320.26361   -8155.9499   -10064.285    1908.3354   -8450.7517   -1613.5336    40.343198    65661.525   -356.20318   0.81032215   -8497.0522 
  360000       719970      316.412    -11368.13   -13253.515     1885.385   -11720.919   -1532.5962    40.445154    66160.606   -1093.1228    0.8042095   -12422.867 
  361000       721970    310.79983   -8506.5519   -10358.496    1851.9441    -8900.486     -1458.01    40.326389    65579.485    501.43462   0.81133586   -8026.9751 
  362000       723970    329.72227   -9009.6862   -10974.382    1964.6961   -9490.3875   -1483.9947    40.384797    65864.851      37.9632   0.80782068   -8973.2198 
  363000       725970    326.94284   -7984.0109   -9932.1454    1948.1345   -8375.3723   -1556.7731    40.400986    65944.094     59.53132   0.80684994    -7926.758 
  364000       727970    317.14623   -7733.3335   -9623.0935      1889.76   -8148.1255    -1474.968    40.495581    66408.385    382.72008   0.80120889   -7362.6698 
  365000       729970    320.09762   -8122.9735    -10030.32    1907.3462   -8542.6987    -1487.621    40.484681    66354.773    180.44235   0.80185622   -7948.3565 
  366000       731970    325.04122   -10286.491   -12223.294    1936.8034   -10610.869   -1612.4249    40.447941    66174.285   -1200.3014   0.80404327   -11444.882 
  367000       733970     316.9525   -8005.4329   -9894.0385    1888.6056   -8409.1639   -1484.8746    40.407443    65975.716    333.78896   0.80646321   -7684.2651 
  368000       735970    324.68097   -5531.9265   -7466.5832    1934.6568   -5968.5912    -1497.992    40.343338    65662.208    1290.6605   0.81031372   -4295.9694 
  369000       737970    316.86731   -6271.1249   -8159.2229     1888.098   -6645.2126   -1514.0103    40.423111     66052.49    731.51386   0.80552585   -5566.4519 
  370000       739970    331.93033   -7153.7431   -9131.5962    1977.8531    -7629.898   -1501.6982    40.472321    66294.019    511.98448   0.80259108    -6658.741 
  371000       741970    320.74544   -7846.2355   -9757.4418    1911.2064   -8253.7963   -1503.6456    40.500058    66430.409    226.02712   0.80094326    -7627.256 
  372000       743970    320.79226   -6654.6593   -8566.1446    1911.4853   -7058.7108   -1507.4338    40.465294    66259.493    521.75331   0.80300928   -6150.4751 
  373000       745970    319.97711   -9376.7401   -11283.368    1906.6282   -9798.1644   -1485.2038    40.394424    65911.967   -188.13006   0.80724322   -9557.5817 
  374000       747970    315.30158   -9351.4411    -11230.21    1878.7684   -9736.0579   -1494.1516     40.38702    65875.726   -78.713923   0.80768731    -9427.064 
  375000       749970     311.7696   -8388.4692   -10246.192    1857.7226   -8654.3455   -1591.8463     40.33681    65630.338    -295.4799   0.81070721   -8671.2882 
  376000       751970    316.39711   -6896.7835   -8782.0797    1885.2962   -7259.7967    -1522.283     40.33802    65636.244    579.54661   0.81063426   -6342.0198 
  377000       753970      323.441    -8568.508   -10495.776    1927.2682   -8986.6811   -1509.0951    40.363697    65761.666   -82.652598    0.8090882   -8647.7774 
  378000       755970    311.76668   -10062.395     -11920.1    1857.7052   -10421.299   -1498.8011    40.362183    65754.265   -390.00967   0.80917926   -10436.398 
  379000       757970    328.06426   -8854.4724   -10809.289    1954.8166   -9306.7685   -1502.5204     40.49335    66397.407    -299.5381   0.80134136   -9144.5265 
  380000       759970    324.64958   -8135.9216   -10070.391    1934.4697    -8611.083   -1459.3083    40.386455    65872.964    399.90618   0.80772118   -7751.7359 
  381000       761970    318.40375   -7440.4015   -9337.6546    1897.2531   -7873.0202   -1464.6344    40.500288    66431.542    437.93789    0.8009296   -7016.1115 
  382000       763970    326.90119   -8913.1771   -10861.063    1947.8863   -9364.0407   -1497.0227     40.50099    66434.997    -279.7815   0.80088794   -9184.2536 
  383000       765970    317.43862   -9393.4878    -11284.99    1891.5022   -9791.0149   -1493.9751    40.525479    66555.579   -463.70211   0.79943693   -9843.5778 
  384000       767970    329.87821     -3747.16   -5712.7852    1965.6252   -4203.6377   -1509.1475    40.509967    66479.182    1480.8663   0.80035564   -2311.4147 
  385000       769970    327.73546   -7731.7732   -9684.6306    1952.8574   -8184.3154   -1500.3152    40.508451    66471.718    214.52583   0.80044551   -7523.8072 
  386000       771970    326.08652   -10205.129   -12148.161    1943.0319   -10660.285   -1487.8754      40.4876    66369.127   -574.67847   0.80168281   -10761.375 
  387000       773970    318.74081   -9590.0752   -11489.337    1899.2615   -10011.414   -1477.9229    40.438741     66129.14   -233.23371   0.80459216   -9815.0118 
  388000       775970      318.443   -8558.8722   -10456.359     1897.487   -8986.7029   -1469.6563    40.439388    66132.316    139.05775   0.80455353   -8424.7549 
  389000       777970    317.54878   -6719.4182   -8611.5768    1892.1586   -7168.2219    -1443.355    40.343676     65663.86    1068.9256   0.81029334   -5695.7723 
  390000       779970    314.69832   -8637.2487   -10512.423    1875.1738   -8963.2282   -1549.1943     40.40976    65987.065   -300.58195   0.80632451   -8926.5149 
  391000       781970    313.90934   -7502.8474   -9373.3199    1870.4725   -7859.7509    -1513.569    40.407979    65978.341    287.90134   0.80643113   -7225.8211 
  392000       783970    321.03976   -6209.1084   -8122.0686    1912.9602   -6627.2614   -1494.8072     40.41959    66035.231    728.57012   0.80573639   -5507.4545 
  393000       785970    329.29027   -9615.3526   -11577.474    1962.1219    -10059.94   -1517.5346    40.477548    66319.707   -533.57487   0.80228021   -10131.429 
  394000       787970    316.94299   -7604.4221   -9492.9711     1888.549   -7951.3315   -1541.6395     40.38968    65888.746    164.67953    0.8075277   -7446.1783 
  395000       789970    316.42052   -9454.2061   -11339.642    1885.4357   -9879.4585   -1460.1833    40.387256    65876.883   -174.26844   0.80767312   -9621.6339 
  396000       791970    323.01906   -7898.1564   -9822.9105    1924.7541   -8350.7644   -1472.1461    40.477966    66321.759    257.31325   0.80225538   -7649.2741 
  397000       793970    317.62802   -8272.3904   -10165.021    1892.6308   -8661.8446   -1503.1766    40.414238    66009.003   -13.410387   0.80605653   -8285.3003 
  398000       795970    310.94048   -9677.5395   -11530.322    1852.7822    -9985.704   -1544.6176    40.421331    66043.767   -683.64326   0.80563224   -10336.011 
  399000       797970    320.40872   -10200.695   -12109.895       1909.2   -10616.831   -1493.0633    40.515395    66505.908   -639.37649   0.80003401   -10820.839 
  400000       799970    311.93998    -4790.318   -6649.0558    1858.7378   -5140.8099   -1508.2459    40.312217    65510.369    1557.1127   0.81219186   -3302.6501 
  401000       801970    326.47928   -8881.3563   -10826.729    1945.3723   -9308.2389   -1518.4897    40.401234    65945.305   -258.29289   0.80683513   -9129.7681 
  402000       803970     318.4339   -6836.6365   -8734.0692    1897.4328   -7233.3227   -1500.7465    40.411404    65995.119     604.4514   0.80622611   -6254.8694 
  403000       805970    322.26644    -8696.581    -10616.85    1920.2695   -9105.3472   -1511.5032    40.541416    66634.133   -372.04684   0.79849449   -9058.1325 
  404000       807970    312.22777   -7407.1161   -9267.5688    1860.4527   -7807.2976   -1460.2711    40.371755    65801.059    793.62039   0.80860383   -6645.5255 
  405000       809970     312.1312   -6115.1384   -7975.0156    1859.8772   -6479.3925    -1495.623    40.277118    65339.403    1116.2155   0.81431702   -5051.4875 
  406000       811970    321.29373   -5779.3527   -7693.8262    1914.4735   -6193.3781   -1500.4481    40.307357    65486.678    1065.2402   0.81248569   -4761.9887 
  407000       813970    324.81968    -8920.576   -10856.059    1935.4833   -9376.8815   -1479.1778    40.415667    66016.009    2.2689442   0.80597099   -8918.3915 
  408000       815970    314.88212    -9700.714   -11576.983     1876.269   -10063.866   -1513.1168    40.358482    65736.182   -318.68285   0.80940187   -10006.234 
  409000       817970    315.51162   -7542.5382   -9422.5581    1880.0199   -7847.9603   -1574.5978    40.337831    65635.322    63.908978   0.81064565    -7481.363 
  410000       819970    310.24859   -9479.5593   -11328.219    1848.6594   -9884.7624   -1443.4563    40.502879    66444.294    -211.8658   0.80077589   -9684.8619 
  411000       821970    321.01956   -7473.4165   -9386.2563    1912.8398   -7881.9503    -1504.306    40.406897    65973.041    435.00346   0.80649592   -7054.8783 
  412000       823970    318.98212    -10014.38   -11915.079    1900.6994   -10414.894    -1500.185    40.479177    66327.713   -582.49247   0.80218336   -10577.837 
  413000       825970    321.38598   -9877.8142   -11792.837    1915.0231   -10305.608   -1487.2294    40.489547      66378.7    -503.6008   0.80156719   -10365.333 
  414000       827970    322.18108   -9276.2097   -11195.971    1919.7608   -9732.2446   -1463.7259     40.49849    66422.693   -136.19325    0.8010363    -9408.141 
  415000       829970    321.71182    -9670.318   -11587.283    1916.9647   -10078.287   -1508.9953    40.510481    66481.712   -594.38716   0.80032518   -10246.617 
  416000       831970    330.52041   -5694.0158   -7663.4677    1969.4519   -6196.4755   -1466.9922    40.475548    66309.876    1104.4555   0.80239914   -4625.9394 
  417000       833970    327.50609   -5131.1125   -7082.6031    1951.4906   -5627.0266   -1455.5765    40.495963    66410.263     1223.279   0.80118623   -3946.3355 
  418000       835970    327.24892   -9470.3166   -11420.275    1949.9583   -9885.6961   -1534.5788    40.573291    66791.423   -819.83909   0.79661408   -10268.909 
  419000       837970    314.24964   -7838.5615   -9711.0617    1872.5002   -8199.6635   -1511.3982    40.487514    66368.703    37.503874   0.80168793   -7802.2608 
  420000       839970    318.93193   -9779.3766   -11679.777    1900.4003   -10232.169   -1447.6084    40.539487    66624.619   -423.75749   0.79860852   -10191.121 
  421000       841970    322.79597   -8819.5196   -10742.944    1923.4248   -9226.4969   -1516.4475    40.512779    66493.025   -200.53126   0.80018902   -9013.9813 
  422000       843970    318.30544   -10169.227   -12065.894    1896.6673   -10441.487   -1624.4066    40.506919    66464.179   -1398.5335    0.8005363   -11524.842 
  423000       845970    326.37955   -5997.9917   -7942.7697     1944.778   -6448.7275   -1494.0422    40.471434    66289.656    1015.9765   0.80264391   -5015.7795 
  424000       847970    317.96044   -9049.1305   -10943.742    1894.6116   -9401.0019   -1542.7401    40.522117    66539.016   -464.34905   0.79963594   -9499.7364 
  425000       849970    320.76625   -7719.9577   -9631.2881    1911.3304    -8084.571    -1546.717    40.444779    66158.768    75.730302   0.80423185   -7646.8888 
  426000       851970     323.3902   -7435.9987   -9362.9643    1926.9656    -7827.605   -1535.3593     40.42847    66078.763    236.24776   0.80520557   -7208.3289 
  427000       853970    326.90597   -9279.9285   -11227.843    1947.9147   -9751.2189   -1476.6243     40.45012    66184.979    -228.8143   0.80391335   -9500.7892 
  428000       855970    321.78994   -9676.4192   -11593.849    1917.4302   -10118.582   -1475.2669    40.469143    66278.403   -337.35453   0.80278017   -10002.507 
  429000       857970    311.82913   -7260.2047   -9118.2819    1858.0773   -7614.5165   -1503.7654    40.409707    65986.806    437.32358   0.80632767   -6839.3464 
  430000       859970     319.9313   -7459.0813   -9365.4365    1906.3552   -7921.1032   -1444.3334    40.452121    66194.802    664.40972   0.80379405   -6817.6713 
  431000       861970    324.53664   -9844.2573   -11778.054    1933.7968   -10291.791   -1486.2635    40.497659    66418.608   -420.68218   0.80108557    -10251.75 
  432000       863970    325.26294   -9010.4001   -10948.525    1938.1245   -9491.7268   -1456.7978    40.466268    66264.278    2.1422289    0.8029513   -9008.3299 
  433000       865970    323.77902   -10320.515   -12249.797    1929.2824   -10727.009   -1522.7885     40.44657    66167.556   -701.45849   0.80412503   -10997.412 
  434000       867970    325.44316   -9438.8252   -11378.024    1939.1984   -9805.3061   -1572.7175    40.435152    66111.534   -665.18586   0.80480644   -10080.177 
  435000       869970       311.33   -5895.7978    -7750.901    1855.1032   -6246.2512   -1504.6498     40.39901    65934.416    906.76201   0.80696837   -5023.8683 
  436000       871970    317.26492   -9201.2751   -11091.742    1890.4672    -9611.115   -1480.6273    40.439796    66134.316   -114.24855   0.80452919   -9311.4679 
  437000       873970    324.43556   -8834.7768   -10767.971    1933.1945   -9251.5384   -1516.4329    40.443517    66152.573   -238.80029   0.80430716   -9065.1636 
  438000       875970    325.14942   -6929.0554   -8866.5035    1937.4481    -7315.198   -1551.3056    40.466215    66264.017    294.73134   0.80295446   -6644.2292 
  439000       877970    321.51838   -8487.9066   -10403.719     1915.812   -8851.6872   -1552.0314     40.43574    66114.417   -362.97728   0.80477134   -8837.8932 
  440000       879970    309.92762   -7319.1946   -9165.9414    1846.7469   -7703.2883   -1462.6531    40.441007     66140.26    580.32166   0.80445689   -6759.4234 
  441000       881970    316.62369   -6980.0094   -8866.6558    1886.6464   -7301.8236   -1564.8322    40.469267    66279.012    103.29516    0.8027728   -6880.1632 
  442000       883970    325.30339   -7794.2124   -9732.5779    1938.3655   -8251.6817   -1480.8962    40.499996    66430.104    279.91554   0.80094694    -7523.026 
  443000       885970    310.53367   -9720.8931   -11571.251    1850.3581   -10073.741   -1497.5099    40.444433     66157.07   -380.39463   0.80425249    -10087.91 
  444000       887970    312.93651   -7271.3997   -9136.0754    1864.6758   -7599.2873   -1536.7882    40.543168    66642.771    30.033569   0.79839099   -7242.2096 
  445000       889970    315.41603   -9672.7787   -11552.229    1879.4504   -10051.224   -1501.0055    40.553596    66694.207   -616.47592   0.79777525   -10272.404 
  446000       891970    321.57354   -7267.9983   -9184.1391    1916.1407   -7669.1057   -1515.0334    40.496269    66411.769    217.30185   0.80116806   -7057.5312 
  447000       893970    318.87542   -9324.3151   -11224.379    1900.0636   -9767.0729   -1457.3058    40.507235    66465.734   -130.63388   0.80051757    -9450.943 
  448000       895970     319.6643   -8956.4976   -10861.262    1904.7642   -9355.0325   -1506.2293    40.486862    66365.499   -245.51088   0.80172663   -9194.1209 
  449000       897970    326.46477   -7552.4584   -9497.7442    1945.2858   -7998.7952    -1498.949    40.545586    66654.696    265.15716   0.79824815   -7294.7017 
  450000       899970    315.00435   -10364.809   -12241.806    1876.9973   -10667.715   -1574.0913    40.469774    66281.502   -1049.0603   0.80274264   -11378.881 
  451000       901970     321.6931    -8392.136   -10308.989    1916.8531   -8859.1028   -1449.8864    40.540465     66629.44    92.705638   0.79855073   -8302.0519 
  452000       903970    319.22152   -8878.6579   -10780.784    1902.1259   -9221.6345   -1559.1493     40.44337    66151.854   -482.11563    0.8043159   -9343.7823 
  453000       905970    323.51388   -7564.8932   -9492.5957    1927.7025   -7983.7167    -1508.879    40.506495    66462.091    79.321199   0.80056146   -7488.0086 
  454000       907970    319.66852   -8519.8023   -10424.592    1904.7894    -8809.292   -1615.2997    40.501481    66437.411   -664.95284   0.80085884   -9164.0894 
  455000       909970    325.09156   -8440.8638   -10377.967    1937.1034   -8905.9062   -1472.0609    40.547558     66664.42   -29.240917   0.79813172   -8469.2927 
  456000       911970    318.46831   -8206.1152   -10103.753    1897.6378   -8578.6865   -1525.0666    40.457254    66220.004    4.6968609   0.80348814   -8201.5792 
  457000       913970    325.91631   -6560.2724   -8502.2901    1942.0178   -7012.4065   -1489.8836    40.446021    66164.862    708.35856   0.80415777   -5876.7442 
  458000       915970    312.63617   -6229.8976   -8092.7838    1862.8862   -6541.3658    -1551.418    40.504599    66452.757    288.77305   0.80067389   -5950.0345 
  459000       917970    331.97917   -8663.9247   -10642.069    1978.1441   -9088.4791   -1553.5897    40.602959    66938.049   -569.31472   0.79486912   -9219.7027 
  460000       919970    311.43706   -9006.5961   -10862.337    1855.7411   -9394.2843    -1468.053    40.533955    66597.351   -169.23248   0.79893551   -9170.9639 
  461000       921970    327.95054   -7064.2249   -9018.3639     1954.139   -7492.4864   -1525.8775    40.509208    66475.448    194.51875    0.8004006   -6875.6436 
  462000       923970    316.58315   -6239.6461   -8126.0509    1886.4048   -6603.1427   -1522.9082    40.483159    66347.288    459.70055   0.80194669   -5794.8366 
  463000       925970    316.01439   -7933.4054   -9816.4212    1883.0158   -8315.8995   -1500.5217     40.63667    67104.918   -110.47119   0.79289253   -8041.5187 
  464000       927970    320.78386   -8673.7089   -10585.144    1911.4353   -9117.2737   -1467.8705    40.637201    67107.544   -360.78034    0.7928615   -9026.8027 
  465000       929970    315.99867   -8017.7647   -9900.6868    1882.9221   -8403.6669   -1497.0199    40.504346    66451.514    10.090594   0.80068887   -8007.9856 
  466000       931970    327.28031   -7260.0453   -9210.1905    1950.1453   -7706.6533   -1503.5372    40.618367    67014.285    117.96039   0.79396487   -7144.7585 
  467000       933970    325.47242   -8465.0471    -10404.42    1939.3728    -8923.364   -1481.0558    40.554906    66700.672   -139.15654   0.79769793   -8600.4131 
  468000       935970    310.89142   -8505.9362   -10358.426    1852.4898   -8843.5574   -1514.8687    40.545994    66656.707   -284.57214   0.79822407   -8782.5744 
  469000       937970    314.20889   -8568.3641   -10440.622    1872.2574     -8941.04   -1499.5815    40.594965    66898.521    -220.1061   0.79533878   -8783.1098 
  470000       939970     315.9934   -10446.636   -12329.527    1882.8907   -10818.596   -1510.9306    40.641607    67129.377   -1080.5594   0.79260363   -11504.518 
  471000       941970    320.14314   -8023.6387   -9931.2562    1907.6175   -8430.0664   -1501.1899    40.530654    66581.078   -69.512375   0.79913077   -8091.1364 
  472000       943970    317.92299   -5529.9397   -7424.3282    1894.3884   -5949.4145   -1474.9137    40.548672    66669.918    922.99211    0.7980659   -4632.5031 
  473000       945970    322.59651   -7453.0126   -9375.2489    1922.2363   -7901.8145   -1473.4344    40.564553    66748.281    298.08578   0.79712896   -7162.8395 
  474000       947970    311.99429   -6859.7098   -8718.7713    1859.0614   -7166.7621   -1552.0092    40.540681    66630.505    111.60005   0.79853797   -6751.2639 
  475000       949970    319.90842   -5394.7871    -7301.006    1906.2189    -5781.665    -1519.341    40.603713    66941.781    667.34955   0.79482481    -4743.269 
  476000       951970    317.23826   -6082.8467   -7973.1551    1890.3084   -6520.2337   -1452.9214    40.593921    66893.361    704.06622   0.79540013     -5395.98 
  477000       953970    328.17922   -7932.5187   -9888.0203    1955.5016    -8462.115   -1425.9054    40.499952    66429.889    576.32358   0.80094953   -7374.1697 
  478000       955970    319.76721   -8163.6281   -10069.006    1905.3775   -8546.8191   -1522.1865    40.574382    66796.811   -240.39772   0.79654983   -8397.8147 
  479000       957970    315.61271   -8974.9177    -10855.54    1880.6223   -9333.8699   -1521.6701    40.519677        66527   -433.04348   0.79978037   -9395.0686 
  480000       959970    320.73829   -8210.5407   -10121.705    1911.1638   -8599.0966   -1522.6079    40.555383    66703.026   -139.10488   0.79766978   -8345.8613 
  481000       961970    318.68342   -8548.0997   -10447.019    1898.9196   -8897.6552   -1549.3641    40.555006    66701.165   -506.21023   0.79769203   -9040.5249 
  482000       963970    327.68359   -8758.6034   -10711.152    1952.5483   -9225.8052   -1485.3465    40.568188    66766.227   -306.39164    0.7969147   -9056.9421 
  483000       965970    315.84222    -7314.334   -9196.3238    1881.9899   -7699.8859   -1496.4379    40.635234    67097.802    135.80728   0.79297662   -7181.4394 
  484000       967970    325.01844   -8964.4458   -10901.113    1936.6677   -9350.1895   -1550.9239    40.514832    66503.138   -563.63899   0.80006733    -9511.108 
  485000       969970    317.58557   -4740.1868   -6632.5647    1892.3779   -5127.7231   -1504.8415    40.493274    66397.032    1238.1113   0.80134588   -3541.2833 
  486000       971970    316.80841   -7025.7449    -8913.492     1887.747   -7413.2831   -1500.2089    40.541143    66632.784    296.37857   0.79851065   -6737.7329 
  487000       973970    313.57404   -6037.1336   -7905.6082    1868.4746    -6399.711   -1505.8973    40.571101    66780.609    721.71744   0.79674308   -5334.2338 
  488000       975970    324.02888   -8312.5488    -10243.32    1930.7712   -8706.4965   -1536.8236    40.715262    67495.013   -503.62956   0.78830992   -8808.2943 
  489000       977970    325.50662   -8015.9251   -9955.5016    1939.5765   -8445.8746   -1509.6271    40.617288    67008.942   -120.23568   0.79402818   -8133.4262 
  490000       979970    315.26985   -8154.0143   -10032.594    1878.5793   -8598.9829   -1433.6107    40.552261    66687.621    320.31677   0.79785405   -7842.4836 
  491000       981970    325.98746   -9789.8497   -11732.291    1942.4417   -10229.218   -1503.0734    40.701757    67427.875   -793.36201   0.78909484   -10570.015 
  492000       983970    309.06705   -7192.4095   -9034.0286    1841.6191   -7559.1576    -1474.871    40.570968    66779.954    399.48852    0.7967509   -6803.3408 
  493000       985970    338.76966   -4982.7819   -7001.3881    2018.6062   -5479.2006   -1522.1874    40.623715    67040.758    686.83056   0.79365135   -4311.2534 
  494000       987970    322.15787   -7825.3094    -9744.932    1919.6226   -8216.4373   -1528.4946    40.631117    67077.412   -80.619265   0.79321767   -7904.1756 
  495000       989970    323.86164    -9166.995    -11096.77    1929.7747   -9594.0381   -1502.7316     40.56144    66732.913   -334.59734   0.79731254   -9492.6355 
  496000       991970    325.66275   -6399.4498   -8339.9567    1940.5069   -6789.3051   -1550.6516    40.506645    66462.827    592.04838   0.80055259    -5825.582 
  497000       993970     318.9827   -7938.8573   -9839.5602    1900.7028   -8387.3461   -1452.2141    40.549644    66674.708    345.36824   0.79800856   -7603.0274 
  498000       995970    326.25588   -8252.0294   -10196.071    1944.0411   -8727.1119   -1468.9587    40.735799    67597.204   -170.14975   0.78711818   -8419.7692 
  499000       997970    314.00178   -7924.4297    -9795.453    1871.0233    -8269.265    -1526.188    40.501308    66436.563    57.109915   0.80086906   -7869.0954 
  500000       999970    313.92935   -9742.7137   -11613.305    1870.5917   -10133.378   -1479.9274    40.598638    66916.682    -557.2016   0.79512292   -10286.493 
  501000      1001970     327.3284   -9540.6139   -11491.046    1950.4319   -10013.508   -1477.5379    40.511651    66487.475   -214.28968   0.80025581   -9748.4002 
  502000      1003970    316.09676   -8178.7878   -10062.294    1883.5065    -8563.092   -1499.2023     40.49277    66394.555    85.247216   0.80137578   -8096.2432 
  503000      1005970    321.31679   -7016.7844   -8931.3953    1914.6108   -7379.9206   -1551.4746    40.585758    66853.014    120.02827   0.79588017   -6899.7589 
  504000      1007970    323.30972     -6762.36    -8688.846     1926.486   -7177.5249   -1511.3212    40.591823    66882.986    270.83834   0.79552351    -6498.179 
  505000      1009970    321.50978   -5576.1834   -7491.9442    1915.7608   -6019.4841   -1472.4602    40.498571    66423.095    1068.5788   0.80103145   -4541.0375 
  506000      1011970    318.95169   -10140.393   -12040.911    1900.5181     -10536.5    -1504.411    40.555937    66705.759   -754.47138   0.79763709   -10874.369 
  507000      1013970    311.35109   -7435.3384   -9290.5673    1855.2289   -7845.5492   -1445.0181    40.556935    66710.681    510.65569   0.79757825    -6938.518 
  508000      1015970    321.01659   -7660.3929   -9573.2149     1912.822   -8099.9702   -1473.2447    40.593177     66889.68    176.17018   0.79544391   -7488.5358 
  509000      1017970    321.45594   -6340.6758   -8256.1158      1915.44   -6742.1631   -1513.9526    40.556066    66706.395    553.48425    0.7976295   -5802.2217 
  510000      1019970    312.07273   -8651.4073   -10510.936    1859.5288   -9020.5175   -1490.4186    40.513234    66495.268    -123.7128   0.80016202   -8771.3797 
  511000      1021970    321.76239   -8082.8043    -10000.07     1917.266   -8550.5413    -1449.529    40.416903    66022.064    464.56669   0.80589707   -7635.4897 
  512000      1023970    322.63119   -7371.4963   -9293.9391    1922.4429   -7813.7355   -1480.2037    40.553963    66696.016    218.63216   0.79775362   -7158.8343 
  513000      1025970    323.55916   -11513.982   -13441.954    1927.9723   -11935.418   -1506.5365    40.515602    66506.929    -1182.319   0.80002172   -12660.755 
  514000      1027970    322.75442   -9674.4301   -11597.607    1923.1772   -10072.408   -1525.1989    40.591215    66879.983   -730.19332   0.79555924   -10386.643 
  515000      1029970    322.05839   -8658.3655   -10577.395    1919.0298   -9040.6397   -1536.7556    40.537455    66614.601   -456.41623   0.79872861   -9101.7765 
  516000      1031970    327.92073   -8874.9517   -10828.913    1953.9613   -9336.7753   -1492.1377    40.511425     66486.36   -149.31431   0.80026923   -9019.7321 
  517000      1033970     313.5357   -8815.6337    -10683.88    1868.2461   -9137.4567   -1546.4231    40.546054    66657.003   -572.54267   0.79822053   -9372.2161 
  518000      1035970    326.98392   -8710.2402   -10658.619    1948.3792   -9147.1989   -1511.4205    40.542922    66641.559   -142.14165   0.79840552   -8848.3875 
  519000      1037970    313.07718   -7558.4356   -9423.9496     1865.514   -7931.9929   -1491.9567    40.582909    66838.934    198.02655   0.79604782   -7365.4038 
  520000      1039970    322.09365   -8685.1633   -10604.403    1919.2399   -9026.6463   -1577.7569    40.524643    66551.463   -460.46347   0.79948638   -9132.0821 
  521000      1041970    327.68778   -7559.1826   -9511.7558    1952.5733   -7999.8208   -1511.9351     40.49721    66416.395    279.21854   0.80111226   -7288.7273 
  522000      1043970    322.32883   -7709.4262   -9630.0675    1920.6412   -8150.5873   -1479.4802    40.499892    66429.596    279.46825   0.80095306   -7438.6753 
  523000      1045970    319.21349   -9953.5676   -11855.646     1902.078   -10294.222   -1561.4232     40.48417    66352.259   -924.99901   0.80188661    -10848.67 
  524000      1047970    324.53952   -8593.1972   -10527.011    1933.8139   -9067.7119   -1459.2993    40.517488    66516.218    112.92211      0.79991   -8483.6548 
  525000      1049970    316.91519    -9654.083   -11542.466    1888.3833   -9961.6305   -1580.8358    40.538692      66620.7    -893.7406   0.79865549   -10522.437 
  526000      1051970    314.22331   -7632.5461   -9504.8895    1872.3434   -7935.3592   -1569.5303    40.483729    66350.091   -141.14437   0.80191281   -7769.1242 
  527000      1053970    316.94557   -4832.4697   -6721.0341    1888.5643   -5276.8805   -1444.1536    40.490166    66381.746    1570.9258   0.80153041   -3311.6412 
  528000      1055970    311.05542   -9458.4425    -11311.91    1853.4671   -9851.4248   -1460.4847    40.480641    66334.908   -207.81348   0.80209636   -9659.4868 
  529000      1057970    326.63866   -7485.8652   -9432.1872     1946.322   -7907.6826   -1524.5046    40.521391    66535.439    23.032369   0.79967892   -7463.5158 
  530000      1059970    316.99273   -8579.4058   -10468.251    1888.8453   -8964.6058   -1503.6453    40.483141    66347.201   -63.906622   0.80194774   -8641.2422 
  531000      1061970    319.22689   -8458.1615   -10360.319    1902.1579   -8847.3374    -1512.982    40.525271    66554.555   -185.58522   0.79944923   -8638.2961 
  532000      1063970     323.3953   -8668.1913   -10595.187    1926.9959    -9070.402   -1524.7853    40.461414    66240.435   -213.62493   0.80324031   -8874.5634 
  533000      1065970     314.9351   -7391.5188   -9268.1035    1876.5847   -7778.8886   -1489.2149    40.583621    66842.455    163.50294   0.79600589   -7232.1315 
  534000      1067970    307.74102   -8299.5365   -10133.254    1833.7177   -8611.6956   -1521.5586    40.509514    66476.951   -101.93571    0.8003825    -8398.363 
  535000      1069970    319.24532   -8312.6028    -10214.87    1902.2677   -8701.7896   -1513.0809    40.491868    66390.117    8.0846002   0.80142935    -8304.775 
  536000      1071970    323.00464   -6827.2961   -8751.9642    1924.6681   -7221.4012    -1530.563    40.484039    66351.615    450.69922   0.80189439   -6391.1679 
  537000      1073970    308.37831   -9793.3197   -11630.835    1837.5151   -10136.379   -1494.4562    40.489185    66376.921   -437.03188   0.80158868   -10216.384 
  538000      1075970    319.32016    -7692.361   -9595.0747    1902.7137   -8076.0124   -1519.0623    40.481474    66339.003    102.66424   0.80204685   -7593.0348 
  539000      1077970    322.53612   -5809.9585    -7731.835    1921.8764   -6299.0842   -1432.7508     40.52313    66544.009    1152.0147   0.79957593   -4691.9557 
  540000      1079970     314.9388   -7613.9882   -9490.5949    1876.6067   -8035.6755   -1454.9194    40.600759    66927.171    314.22761   0.79499832   -7307.2819 
  541000      1081970    327.69044    -9761.665   -11714.254    1952.5891   -10234.299   -1479.9554    40.563148    66741.347    -445.2764   0.79721178   -10195.077 
  542000      1083970    319.26839   -7308.3512   -9210.7564    1902.4052   -7725.1847   -1485.5717    40.578735    66818.313    264.92166   0.79629349   -7050.1913 
  543000      1085970     327.8081   -7923.3826   -9876.6728    1953.2902   -8387.2985   -1489.3743    40.626039    67052.262   -30.809753   0.79351518   -7953.5111 
  544000      1087970    313.68971    -7511.433   -9380.5968    1869.1638   -7860.8062   -1519.7906    40.637658     67109.81   -104.03134   0.79283473   -7613.2514 
  545000      1089970    325.27202   -8588.5286   -10526.707    1938.1786   -9030.2522    -1496.455    40.513327    66495.727   -141.92361    0.8001565   -8726.1621 
  546000      1091970    323.45993   -9296.2878   -11223.669     1927.381   -9789.3084   -1434.3604    40.590794    66877.901   -160.69553     0.795584   -9453.0214 
  547000      1093970    314.68346   -8701.0599   -10576.145    1875.0852   -9096.7224   -1479.4228    40.557429    66713.118   -196.07983   0.79754912   -8891.8343 
  548000      1095970    318.64834   -7167.4386   -9066.1492    1898.7105   -7549.6214   -1516.5278    40.543414    66643.986     176.2924   0.79837644    -6996.094 
  549000      1097970    327.90155   -8011.8336   -9965.6807    1953.8471    -8397.352   -1568.3286    40.580764    66828.338   -438.04298   0.79617404   -8438.7603 
  550000      1099970    309.59969   -8133.9569   -9978.7498    1844.7929   -8503.6118    -1475.138    40.520453    66530.818    40.481108   0.79973447   -8094.6788 
  551000      1101970    320.13704   -7063.6564   -8971.2376    1907.5811   -7451.7683   -1519.4692     40.49051     66383.44    157.42003   0.80150996   -6911.2527 
  552000      1103970    318.93871   -9198.4728   -11098.914    1900.4407   -9556.4628   -1542.4507    40.490986    66385.779   -601.73556   0.80148172   -9781.0542 
  553000      1105970    324.53103    -8670.834   -10604.597    1933.7633   -9133.4685   -1471.1289    40.490655    66384.153   -62.485697   0.80150134   -8731.3292 
  554000      1107970    327.44096   -6651.4034    -8602.506    1951.1026   -7146.8153   -1455.6907    40.464208    66254.157    775.42165   0.80307395   -5902.1531 
  555000      1109970     319.1776   -10009.694   -11911.558    1901.8642   -10470.485    -1441.073    40.543967    66646.712   -478.46223   0.79834378   -10474.747 
  556000      1111970    318.14218   -7903.6533   -9799.3478    1895.6945   -8290.9124   -1508.4354    40.493412    66397.712    14.238053   0.80133767    -7889.866 
  557000      1113970    318.50143   -6813.3328   -8711.1679    1897.8352   -7242.8239    -1468.344    40.399043     65934.58    766.04562   0.80696636   -6076.7123 
  558000      1115970     321.8207   -7081.6776   -8999.2911    1917.6135   -7472.1386   -1527.1525    40.434917    66110.381    259.28398   0.80482047   -6831.6884 
  559000      1117970    317.39127   -6888.8003   -8780.0204    1891.2201   -7245.5597   -1534.4606     40.45454    66206.677    280.53028   0.80364988   -6617.9325 
  560000      1119970    326.24822   -6464.9364   -8408.9319    1943.9955   -6931.6814   -1477.2504    40.371984    65802.182    914.87839   0.80859003   -5586.9666 
  561000      1121970    322.26555   -9956.9281   -11877.192    1920.2642   -10373.765   -1503.4276    40.469161    66278.488   -557.60807   0.80277914   -10495.914 
  562000      1123970    316.36706   -8597.4476   -10482.565    1885.1172   -8973.3687    -1509.196    40.447914    66174.153   -183.29563   0.80404486   -8774.3429 
  563000      1125970     318.2903   -10561.061   -12457.639    1896.5771   -10885.022   -1572.6167     40.52393    66547.946   -1206.1828   0.79952863   -11731.702 
  564000      1127970    325.23208   -7636.5426   -9574.4832    1937.9406   -8010.5013    -1563.982    40.433656    66104.196   -99.232623   0.80489578    -7732.209 
  565000      1129970    321.14341   -9176.8453   -11090.423    1913.5777    -9520.541   -1569.8821    40.487266    66367.486   -742.36534   0.80170263    -9895.382 
  566000      1131970    318.88233   -8539.6267   -10439.732    1900.1048   -8943.9171   -1495.8145    40.414906    66012.279    37.291002   0.80601653   -8503.7259 
  567000      1133970     326.7952   -8794.8233   -10742.078    1947.2547   -9271.5369   -1470.5412    40.463677    66251.551   -1.9931128   0.80310555   -8796.7491 
  568000      1135970    315.50336   -9872.7539   -11752.725    1879.9707   -10191.058    -1561.667    40.487764    66369.934   -1044.5544   0.80167306   -10883.817 
  569000      1137970    317.85643   -8860.5621   -10754.554    1893.9918   -9350.4138   -1404.1401     40.44904     66179.68    371.90514   0.80397771   -8501.6131 
  570000      1139970    330.93204   -5478.9412   -7450.8459    1971.9047     -5853.16   -1597.6859    40.397716    65928.081    599.80827   0.80704591   -4902.2295 
  571000      1141970    311.89893   -6824.5135   -8683.0067    1858.4932   -7169.4123   -1513.5945    40.404356    65960.593    513.71415   0.80664811   -6330.3371 
  572000      1143970     316.3712   -8433.8513   -10318.993    1885.1419   -8815.4331   -1503.5601    40.342171    65656.512    137.35743   0.81038402   -8302.3271 
  573000      1145970    323.02017   -6739.9056   -8664.6663    1924.7607   -7121.3124   -1543.3539    40.359361    65740.477    426.55765   0.80934898   -6330.9403 
  574000      1147970    317.36413   -6843.1634   -8734.2218    1891.0584   -7197.5086   -1536.7131    40.390665    65893.564    395.60589   0.80746867   -6462.9901 
  575000      1149970    316.23422   -9467.6977   -11352.023    1884.3257   -9752.9255   -1599.0978      40.4216    66045.085   -741.97592   0.80561616   -10182.369 
  576000      1151970    316.01391   -10401.749   -12284.762    1883.0129   -10772.403    -1512.359    40.372989    65807.093   -628.20097   0.80852969   -11004.652 
  577000      1153970    318.08902   -6677.4848   -8572.8626    1895.3777   -7058.1539   -1514.7086    40.363562    65761.006    667.70497   0.80909632   -6037.1178 
  578000      1155970    322.19591   -8037.9237   -9957.7729    1919.8492   -8420.2463   -1537.5267     40.34368     65663.88    208.68244   0.81029309    -7838.081 
  579000      1157970    320.67866   -9811.3272   -11722.136    1910.8085   -10303.117   -1419.0187    40.431512    66093.681   -25.532132   0.80502383   -9835.9378 
  580000      1159970    333.35352   -7179.9345   -9166.2679    1986.3334   -7692.9946   -1473.2733     40.39184    65899.315    660.84564   0.80739819    -6544.813 
  581000      1161970    325.73106   -8702.0235   -10642.937    1940.9139   -9151.1034   -1491.8339    40.369936    65792.165    165.34023   0.80871313   -8543.3777 
  582000      1163970    321.78486   -9256.2747   -11173.675    1917.3999   -9654.5826   -1519.0921    40.324062    65568.131   -171.18508   0.81147635   -9419.9694 
  583000      1165970    316.82349   -8519.3701   -10407.207    1887.8369   -8846.8543   -1560.3526      40.3577    65732.361   -130.53809   0.80944892    -8644.509 
  584000      1167970    323.00996   -10260.614   -12185.314    1924.6998   -10627.399   -1557.9156    40.463751    66251.913   -994.62835   0.80310116    -11221.64 
  585000      1169970    319.32964   -7640.4382   -9543.2084    1902.7701   -8089.5485   -1453.6598    40.302598    65463.484    778.31381   0.81277355   -6897.3682 
  586000      1171970    325.52753   -7487.2135   -9426.9146    1939.7011   -7984.2725   -1442.6422    40.337652    65634.448    811.27376   0.81065645   -6710.6533 
  587000      1173970    320.60678   -9560.2052   -11470.585    1910.3802   -9947.8888   -1522.6966    40.313301    65515.655    -270.0484   0.81212632   -9818.2307 
  588000      1175970    319.17425   -6774.9714   -8676.8156    1901.8442    -7177.578   -1499.2377    40.316219     65529.88     818.6974   0.81195003   -5992.5537 
  589000      1177970    312.18077   -8675.8561   -10536.029    1860.1726   -8923.6353   -1612.3933    40.455905     66213.38   -764.87552   0.80356853   -9414.4614 
  590000      1179970    308.08915    -8687.046   -10522.838    1835.7921   -8942.5242   -1580.3139    40.438544    66128.174   -510.21617   0.80460392   -9179.1043 
  591000      1181970    317.17105   -10341.869   -12231.776    1889.9079   -10752.864   -1478.9127    40.449395    66181.423   -489.27656   0.80395654   -10814.113 
  592000      1183970    320.12407   -8938.5571   -10846.061    1907.5039   -9308.8897   -1537.1713    40.473982    66302.181   -443.91296   0.80249227   -9367.7984 
  593000      1185970    309.77951    -7420.319   -9266.1834    1845.8644   -7810.4963   -1455.6871    40.399705    65937.819    641.19898   0.80692672   -6803.7193 
  594000      1187970    311.72786   -7959.7612   -9817.2351    1857.4738   -8302.8985   -1514.3366    40.491702    66389.299   -93.929228   0.80143923   -8050.7054 
  595000      1189970    312.26904   -6286.1097   -8146.8083    1860.6986   -6644.8281   -1501.9801    40.364979    65767.935    844.40923   0.80901108   -5476.1879 
  596000      1191970    320.69617   -6900.9494   -8811.8622    1910.9128    -7257.257   -1554.6052    40.436398    66117.647    231.62083   0.80473202   -6677.6071 
  597000      1193970    322.46674   -7889.2949   -9810.7579     1921.463   -8324.2381   -1486.5198    40.385083    65866.252     288.8529   0.80780349   -7611.8252 
  598000      1195970    324.00444     -8564.25   -10494.876    1930.6256   -8924.9724   -1569.9032    40.440594    66138.229    -435.1169   0.80448159   -8983.9455 
  599000      1197970    318.47503   -8338.3771   -10236.055    1897.6778   -8753.6924   -1482.3625    40.464999    66258.045   -38.482569   0.80302684    -8375.563 
  600000      1199970     316.9307   -7081.9938   -8970.4695    1888.4757   -7405.6376   -1564.8319    40.368859      65786.9    212.76402   0.80877786   -6877.8607 
  601000      1201970    309.99527    -5734.833    -7581.983      1847.15   -6054.9011   -1527.0819    40.327715    65585.955    990.22406   0.81125582   -4787.6798 
  602000      1203970    324.88365   -7055.8062   -8991.6707    1935.8645   -7396.1879   -1595.4828    40.314088    65519.494    185.90436   0.81207874   -6878.1681 
  603000      1205970    314.22583   -8462.7427   -10335.101    1872.3584   -8898.2964   -1436.8047    40.369796    65791.484    293.43448   0.80872151   -8181.1919 
  604000      1207970    328.05478   -8239.3662   -10194.126    1954.7601   -8669.4582   -1524.6681    40.457263     66220.05   -193.00567   0.80348759   -8425.7617 
  605000      1209970    329.23005   -9719.6871    -11681.45    1961.7631   -10233.731   -1447.7194    40.469403    66279.679   -288.00165   0.80276472   -9998.0756 
  606000      1211970    325.95516   -8989.9412    -10932.19    1942.2492   -9384.5982   -1547.5923    40.454542     66206.69   -566.15544   0.80364972   -9536.5964 
  607000      1213970    316.00195   -11165.905   -13048.847    1882.9417   -11567.572   -1481.2747    40.493389      66397.6   -925.13735   0.80133903   -12061.753 
  608000      1215970    325.39026   -8194.5269    -10133.41    1938.8832   -8666.8376   -1466.5725    40.394842     65914.01    297.08011    0.8072182   -7908.9473 
  609000      1217970     322.7287   -7297.3088   -9220.3327    1923.0239   -7766.2448   -1454.0879    40.440399    66137.274    553.22154   0.80449322   -6763.7021 
  610000      1219970    322.88037   -8160.4478   -10084.376    1923.9277   -8626.4139   -1457.9616    40.446134    66165.416    155.30082   0.80415104   -8010.5896 
  611000      1221970    320.43707   -8518.1889   -10427.558    1909.3689   -8914.0157   -1513.5422    40.479035    66327.013   -255.26686   0.80219184   -8765.1115 
  612000      1223970    316.16847    -6185.678   -8069.6119    1883.9339   -6575.2352   -1494.3767    40.439652     66133.61    776.70318   0.80453778   -5436.5549 
  613000      1225970    311.83557   -11352.074    -13210.19    1858.1157    -11777.67   -1432.5198    40.487121    66366.773   -798.36704   0.80171124   -12124.807 
  614000      1227970    313.89156   -6771.5804    -8641.947    1870.3666   -7204.5827   -1437.3643    40.390508    65892.797     893.4496   0.80747806   -5912.9942 
  615000      1229970      326.699   -9454.8962   -11401.578    1946.6815   -9891.3983   -1510.1794    40.548392    66668.533   -701.64402   0.79808248   -10137.099 
  616000      1231970    324.61227   -9998.2659   -11932.513    1934.2475   -10491.436   -1441.0777    40.566741    66759.082   -530.02602        0.797   -10514.306 
  617000      1233970    314.10258   -7117.8033   -8989.4272     1871.624   -7510.3712   -1479.0561    40.603526    66940.852    324.66782   0.79483584   -6800.8419 
  618000      1235970    318.20101    -9975.237   -11871.282     1896.045   -10404.925   -1466.3567    40.501803    66438.996   -412.36605   0.80083974   -10374.797 
  619000      1237970    320.39897   -6470.0927   -8379.2345    1909.1419   -6864.8717   -1514.3628    40.481728    66340.256    467.59906    0.8020317   -6017.6884 
  620000      1239970     322.1181   -5911.7661   -7831.1516    1919.3855   -6314.4885   -1516.6631    40.551511    66683.919    581.16648   0.79789834    -5346.572 
  621000      1241970    315.06428   -8727.7829   -10605.137    1877.3544   -9106.5974   -1498.5399    40.507213    66465.627   -241.21025   0.80051886    -8961.596 
  622000      1243970    311.98295   -8945.3633   -10804.357    1858.9939   -9320.0285   -1484.3287    40.577197    66810.718   -384.33705   0.79638402   -9319.8481 
  623000      1245970    319.16583   -8520.7974   -10422.592    1901.7941   -8934.5466   -1488.0449    40.508989    66474.365   -160.78796   0.80041363    -8676.675 
  624000      1247970    312.73555   -6799.1529   -8662.6312    1863.4783   -7178.2413   -1484.3899    40.437573    66123.411    631.12107   0.80466188   -6190.5363 
  625000      1249970    314.76068   -10259.605   -12135.151    1875.5454   -10718.673   -1416.4773    40.572148    66785.781   -485.05906   0.79668138   -10732.054 
  626000      1251970    318.87879    -6936.527   -8836.6107    1900.0837   -7418.1578   -1418.4528    40.417244    66023.734    945.91122   0.80587669     -6025.72 
  627000      1253970    312.51532   -6143.1222   -8005.2883    1862.1661   -6571.0058   -1434.2825    40.471712    66291.025    970.81278   0.80262733   -5204.5534 
  628000      1255970    321.88656   -9259.2799   -11177.286    1918.0059   -9702.4021   -1474.8837    40.533263    66593.938   -465.05115   0.79897645   -9710.9396 
  629000      1257970    314.28747    -6955.932   -8828.6577    1872.7257   -7392.1455   -1436.5123    40.516833    66512.991    635.54289   0.79994881   -6339.4403 
  630000      1259970    309.73684   -7153.5588   -8999.1689    1845.6101   -7535.6673   -1463.5015    40.534129    66598.208    477.59392   0.79892523   -6689.6878 
  631000      1261970    314.90434   -8274.7054   -10151.107    1876.4014    -8733.465   -1417.6418    40.609554    66970.673    79.290714   0.79448191   -8197.2623 
  632000      1263970    324.49398   -8907.6547   -10841.197    1933.5426   -9376.8458   -1464.3515     40.62224    67033.457   -371.25572   0.79373779   -9270.5995 
  633000      1265970    329.04937   -9298.6549   -11259.341    1960.6865   -9789.8263   -1469.5151    40.690428    67371.589   -615.27183    0.7897541   -9903.1875 
  634000      1267970    317.91261   -5333.4738   -7227.8004    1894.3265   -5765.3455   -1462.4549    40.600289    66924.847    1027.4304   0.79502593   -4330.6707 
  635000      1269970    327.12721   -7801.0012   -9750.2342     1949.233   -8378.2442   -1371.9901    40.692509    67381.926     439.9837   0.78963294   -7368.6308 
  636000      1271970     319.6627   -8110.3788   -10015.133    1904.7547   -8567.3906   -1447.7429    40.648641    67164.237    43.126377   0.79219225   -8068.1356 
  637000      1273970    321.63887   -6388.4122   -8304.9423      1916.53   -6825.0941   -1479.8481    40.577837    66813.879    467.34673   0.79634634    -5933.024 
  638000      1275970    326.19952   -5932.5898    -7876.295    1943.7053   -6447.2816   -1429.0135    40.588589    66867.001    969.23196   0.79571369   -4987.4077 
  639000      1277970    311.57459   -7761.5122   -9618.0729    1856.5606   -8125.2462   -1492.8267     40.52784    66567.213   -5.1103179   0.79929722   -7766.4734 
  640000      1279970    319.80203   -8189.4702   -10095.055    1905.5849   -8674.2581   -1420.7971    40.587513    66861.687    263.00234   0.79577693   -7933.0142 
  641000      1281970      338.903   -11351.878   -13371.279    2019.4007   -11929.744   -1441.5354    40.636961    67106.357   -1122.9405   0.79287552   -12450.875 
  642000      1283970    329.52848   -5740.4286   -7703.9699    1963.5414   -6215.1914   -1488.7785    40.576938    66809.437    641.51895   0.79639929   -5115.3664 
  643000      1285970    319.76585    -7471.831   -9377.2003    1905.3694   -7908.8691   -1468.3312    40.560141    66726.505    217.58491   0.79738911   -7260.0909 
  644000      1287970    315.34237    -10177.27   -12056.282    1879.0114   -10543.137   -1513.1448    40.579138    66820.304     -951.054   0.79626976   -11104.078 
  645000      1289970    329.27079   -8396.2295   -10358.235    1962.0059   -8834.5535   -1523.6819    40.577376    66811.599   -424.63967   0.79637352   -8809.9893 
  646000      1291970    315.82844   -8200.3485   -10082.256    1881.9077   -8532.8266   -1549.4296    40.452329    66195.825   -314.36376   0.80378163   -8503.8347 
  647000      1293970    316.05137    -9753.352   -11636.588    1883.2361   -10115.258     -1521.33    40.413773    66006.725   -581.26735   0.80608435   -10312.903 
  648000      1295970    323.66467   -8751.0939   -10679.695     1928.601   -9159.7382   -1519.9566     40.42194     66046.75   -163.19654   0.80559586   -8908.2887 
  649000      1297970    318.89035   -9082.9616   -10983.114    1900.1526   -9493.3471   -1489.7671    40.516571      66511.7   -319.55643   0.79996434    -9392.933 
  650000      1299970    309.84508   -7498.8427   -9345.0978    1846.2551   -7779.7262   -1565.3716    40.445073    66160.208   -42.232851   0.80421434   -7539.5923 
  651000      1301970    322.35914   -8192.3632   -10113.185    1920.8218   -8607.3159   -1505.8691     40.52567     66556.52   -108.00547   0.79942563   -8297.1996 
  652000      1303970    320.86977   -11074.505   -12986.452    1911.9472   -11530.317   -1456.1345    40.517418    66515.873   -678.59901   0.79991415    -11732.79 
  653000      1305970    330.08557    -5553.263   -7520.1238    1966.8609   -6044.3438     -1475.78     40.41038    65990.104    1115.5326   0.80628738   -4479.6766 
  654000      1307970    324.89833   -7564.6464   -9500.5984     1935.952   -7941.7095   -1558.8889    40.481489    66339.076   -109.61193   0.80204596   -7670.6946 
  655000      1309970    320.36998   -6496.5195   -8405.4887    1908.9692   -6944.6039   -1460.8847    40.479961    66331.568    770.71297   0.80213675   -5750.9488 
  656000      1311970    327.51679   -7241.2086    -9192.763    1951.5544   -7695.1347   -1497.6283    40.457219    66219.834    363.20875    0.8034902   -6890.4403 
  657000      1313970    312.32745   -8912.2329    -10773.28    1861.0466   -9241.8208   -1531.4587    40.550942    66681.113   -445.81386   0.79793191    -9345.776 
  658000      1315970    326.09622   -8503.1349   -10446.225    1943.0898   -8960.8922   -1485.3325    40.510543    66482.017   -140.12094   0.80032151   -8638.9923 
  659000      1317970    311.75702     -7399.93   -9257.5776    1857.6476   -7745.9044   -1511.6732    40.485009    66356.384    282.10288   0.80183677   -7126.9279 
  660000      1319970     333.8493   -5851.5706   -7840.8582    1989.2876   -6305.9015   -1534.9567    40.512767    66492.968    634.20996    0.8001897   -5236.5571 
  661000      1321970     321.9089   -7019.6529   -8937.7919     1918.139   -7504.5988   -1433.1932    40.513673    66497.431    776.14451   0.80013599   -6266.9505 
  662000      1323970    326.47734   -7975.9604   -9921.3211    1945.3607   -8395.8158   -1525.5053    40.524295    66549.745   -192.50752   0.79950702   -8162.8005 
  663000      1325970     325.6759   -9678.2321   -11618.817    1940.5852   -10141.456   -1477.3617    40.644743     67144.92   -591.96537   0.79242016   -10257.908 
  664000      1327970    319.15974   -8058.0609   -9959.8186    1901.7577   -8462.4958   -1497.3228    40.616197    67003.544   -181.46594   0.79409215   -8235.3854 
  665000      1329970    324.70807   -6627.4003   -8562.2186    1934.8183   -7077.3563   -1484.8623    40.533105    66593.158    651.46266    0.7989858   -5994.7044 
  666000      1331970    321.33954    -7016.449   -8931.1954    1914.7464   -7437.8665   -1493.3289    40.533169    66593.476       413.26   0.79898199   -6615.0919 
  667000      1333970    317.96287    -5525.613   -7420.2391    1894.6261   -5884.8579   -1535.3812    40.604616    66946.243    597.03811   0.79477183   -4942.6994 
  668000      1335970    321.43083   -6473.6258   -8388.9161    1915.2904   -6878.9919   -1509.9242    40.642432    67133.463    407.54087   0.79255539   -6074.6136 
  669000      1337970    321.20464   -6542.4859   -8456.4285    1913.9426    -6959.104   -1497.3245    40.623613    67040.254     376.0692   0.79365732    -6174.798 
  670000      1339970    317.15488   -7748.3372   -9638.1488    1889.8115   -8149.5277    -1488.621    40.647459    67158.377   -32.785301   0.79226137   -7780.4483 
  671000      1341970    325.20977   -4275.4348   -6213.2426    1937.8077   -4738.0747   -1475.1679    40.547269    66662.998    1481.2737   0.79814875   -2835.3236 
  672000      1343970     325.5348   -6845.4991   -8785.2435    1939.7444   -7286.5798   -1498.6637    40.657729    67209.296    280.13199   0.79166114   -6570.9197 
  673000      1345970    328.21077     -8409.43    -10365.12    1955.6896   -8863.7054   -1501.4142    40.677991    67309.828   -412.61996   0.79047874   -8814.4763 
  674000      1347970    319.48644   -7284.8979   -9188.6023    1903.7044   -7628.7547   -1559.8476    40.637196    67107.524   -248.74528   0.79286174   -7528.3435 
  675000      1349970     324.3735   -7160.5069   -9093.3316    1932.8247   -7604.8072   -1488.5244    40.664948    67245.103    192.67897    0.7912396   -6971.5465 
  676000      1351970    311.26593   -10755.322   -12610.044    1854.7214   -11174.885   -1435.1585    40.721045    67523.777    -821.4488   0.78797411   -11564.256 
  677000      1353970     326.4966   -8051.6793   -9997.1547    1945.4755   -8542.5406   -1454.6142    40.602055    66933.578    192.50301   0.79492221    -7863.766 
  678000      1355970    332.61258   -7687.4751   -9669.3935    1981.9184   -8182.8892   -1486.5043    40.566041    66755.627    7.3133287   0.79704124   -7680.3552 
  679000      1357970    317.56108   -6181.6287   -8073.8606    1892.2319   -6636.4835   -1437.3771    40.643363    67138.076     781.3794   0.79250093   -5416.5489 
  680000      1359970    322.14741   -8376.5727   -10296.133    1919.5602   -8746.0333   -1550.0996     40.63298    67086.637   -553.65869   0.79310859   -8918.2667 
  681000      1361970     319.0588   -5247.5761   -7148.7324    1901.1563   -5651.8197   -1496.9127    40.523366    66545.169    956.48323   0.79956199   -4319.3158 
  682000      1363970     312.0044    -7612.172   -9471.2937    1859.1217   -7954.6092   -1516.6845    40.505772    66458.533    42.324202   0.80060431   -7571.1501 
  683000      1365970     329.4753   -9268.4413   -11231.666    1963.2245   -9778.2754   -1453.3904    40.540118    66627.732   -239.49072    0.7985712   -9501.1537 
  684000      1367970    313.46268   -7741.5619   -9609.3729     1867.811   -8112.3407   -1497.0322    40.530675    66581.182    72.736849   0.79912952   -7670.9331 
  685000      1369970      312.564    -6322.477   -8184.9332    1862.4561   -6712.4466   -1472.4866    40.551626    66684.488    662.25535   0.79789153   -5678.4172 
  686000      1371970    313.74797   -7375.6723   -9245.1833     1869.511   -7705.6481   -1539.5353    40.499051    66425.454    32.285067   0.80100301   -7344.3963 
  687000      1373970    328.94214   -10055.278   -12015.325    1960.0476   -10558.512   -1456.8137     40.49907     66425.55   -491.69265   0.80100184   -10531.604 
  688000      1375970    323.56345   -6294.0894   -8222.0873    1927.9979   -6758.7946   -1463.2927    40.551349     66683.12    815.43892    0.7979079   -5501.0711 
  689000      1377970    322.97185   -7989.5813    -9914.054    1924.4727   -8368.7334   -1545.3206    40.465114    66258.608   -178.58309   0.80302001   -8162.1486 
  690000      1379970    323.68222   -5943.0035   -7871.7091    1928.7056   -6395.4836   -1476.2255    40.547739    66665.315    928.29412     0.798121   -5040.4739 
  691000      1381970    311.34063   -8864.1642   -10719.331    1855.1665   -9245.3313   -1473.9994    40.628632    67065.105   -204.61544   0.79336323   -9064.2936 
  692000      1383970    317.68384   -7242.8846    -9135.848    1892.9634   -7683.1402   -1452.7078    40.577367    66811.555    408.88545   0.79637405   -6844.4756 
  693000      1385970    320.07938   -6437.0843   -8344.3218    1907.2375   -6871.1436   -1473.1782     40.53057    66580.666    761.12012   0.79913572   -5698.0285 
  694000      1387970    319.84153   -8486.6806   -10392.501    1905.8203   -8905.5207   -1486.9802    40.552426    66688.436   -99.664557   0.79784429   -8583.6126 
  695000      1389970    325.04832   -4839.7173    -6776.563    1936.8457   -5253.6458   -1522.9172    40.444192    66155.886    1287.8046   0.80426688   -3597.2231 
  696000      1391970    307.84858   -7015.7806   -8850.1393    1834.3587   -7365.0815   -1485.0578    40.499217    66426.274    545.22793   0.80099312   -6487.5861 
  697000      1393970    325.65355   -9269.3557   -11209.808     1940.452   -9774.7775   -1435.0303    40.514078    66499.425   -28.759958     0.800112   -9297.2479 
  698000      1395970    326.74702   -9479.8415   -11426.809    1946.9676   -9933.5832   -1493.2258    40.469686    66281.068   -382.55419    0.8027479   -9849.6342 
  699000      1397970    317.94401   -9304.1879   -11198.702    1894.5137   -9666.9839   -1531.7176    40.503913    66449.382   -502.91963   0.80071457   -9791.5653 
  700000      1399970    316.71618   -7375.1927   -9262.3902    1887.1975   -7769.4859   -1492.9043    40.498307    66421.797    384.71721   0.80104711   -7002.5195 
  701000      1401970    322.27215   -6355.0007   -8275.3042    1920.3035   -6668.2082    -1607.096    40.390467    65892.596    341.54495   0.80748052   -6026.7842 
  702000      1403970    314.85273   -11408.654   -13284.748    1876.0939   -11739.465   -1545.2828    40.499438    66427.359   -1332.5367   0.80098003   -12699.582 
  703000      1405970    319.28131   -6845.4311   -8747.9133    1902.4822   -7228.8147   -1519.0986    40.401113    65944.715    586.01613   0.80684234   -6281.8383 
  704000      1407970    324.27204   -9136.5866   -11068.807    1932.2201    -9568.136   -1500.6707    40.512766    66492.962   -316.69558   0.80018977   -9443.6964 
  705000      1409970    320.18345   -8343.4609   -10251.319    1907.8577   -8717.1501   -1534.1685    40.486931    66365.835   -42.682862   0.80172258   -8384.7727 
  706000      1411970    315.69514   -7968.3391   -9849.4526    1881.1135   -8269.3134   -1580.1392    40.407971    65978.303   -214.85948    0.8064316   -8175.0825 
  707000      1413970    333.24989   -8122.2303   -10107.946    1985.7159     -8594.84   -1513.1062    40.449875    66183.778    124.47166   0.80392793   -8002.0874 
  708000      1415970     313.2626    -8808.613   -10675.232    1866.6188    -9070.846   -1604.3859    40.489264     66377.31   -688.30121   0.80158397   -9474.9196 
  709000      1417970    321.26802   -7602.4319   -9516.7522    1914.3203   -7984.5579   -1532.1943    40.327156    65583.227    321.13291   0.81128957   -7295.2798 
  710000      1419970     324.2821   -8845.0458   -10777.326      1932.28   -9277.5709    -1499.755    40.409131    65983.983    75.433637   0.80636218   -8772.4554 
  711000      1421970    324.14673   -7066.7191   -8998.1925    1931.4734   -7461.1052   -1537.0873    40.404637    65961.972    350.55337   0.80663126    -6729.491 
  712000      1423970    321.38369   -7187.4971   -9102.5065    1915.0095   -7619.5368   -1482.9697    40.419498    66034.782    617.51175   0.80574186   -6592.8026 
  713000      1425970    331.72755    -9657.063   -11633.708    1976.6448   -10117.732   -1515.9761     40.45425    66205.255   -435.53675   0.80366715   -10077.589 
  714000      1427970     322.6073   -6694.1939   -8616.4945    1922.3005   -7055.2406   -1561.2539    40.439545    66133.084    383.18685   0.80454419   -6324.6167 
  715000      1429970    319.60306   -7009.9636   -8914.3629    1904.3993   -7464.1388   -1450.2241    40.568104    66765.811     557.3841   0.79691967   -6467.2326 
  716000      1431970    310.84819   -9671.7307   -11523.963    1852.2322   -10041.605   -1482.3584    40.521777    66537.341   -435.99636   0.79965606   -10094.812 
  717000      1433970    308.16687    -11813.95   -13650.205    1836.2552   -12082.364   -1567.8413    40.537085    66612.777   -1719.4499   0.79875049    -13484.36 
  718000      1435970    326.64327   -6766.5465   -8712.8959    1946.3494   -7202.0512   -1510.8447    40.420141    66037.933    584.97632   0.80570342   -6203.1584 
  719000      1437970    308.47904   -8338.5184   -10176.634    1838.1153    -8659.389   -1517.2447    40.542176    66637.878   -299.33331   0.79844962    -8629.424 
  720000      1439970    327.15827   -8663.8661   -10613.284    1949.4181    -9112.668   -1500.6162     40.42374    66055.577    -103.7312    0.8054882   -8763.7958 
  721000      1441970    334.71783   -6196.9446   -8191.4075    1994.4628   -6700.5013   -1490.9062    40.471896    66291.927    802.59155   0.80261641   -5420.9993 
  722000      1443970    327.29506   -5910.8001   -7861.0333    1950.2332   -6336.7927   -1524.2406    40.415751    66016.418     822.8241   0.80596599   -5118.6001 
  723000      1445970    337.20353     -7647.42   -9656.6942    2009.2742   -8171.7002    -1484.994    40.439867    66134.664     323.8798   0.80452497   -7335.0359 
  724000      1447970    315.67199   -6458.6408   -8339.6163    1880.9755   -6811.7262   -1527.8901    40.392171    65900.939    660.81186    0.8073783   -5823.5361 
  725000      1449970    317.03223   -7080.8777   -8969.9584    1889.0807    -7514.598   -1455.3604    40.513726    66497.688    656.46238    0.8001329   -6444.2401 
  726000      1451970    316.38045    -4572.611    -6457.808     1885.197   -4916.2045   -1541.6035    40.509596    66477.354    990.71862   0.80037765   -3612.1053 
  727000      1453970    313.95111   -8454.7875   -10325.509    1870.7214   -8841.7517   -1483.7572    40.561464    66733.034   -75.167541   0.79731109    -8527.943 
  728000      1455970    317.18352   -6147.4509   -8037.4331    1889.9822   -6535.1105   -1502.3226    40.473575    66300.181    730.77373   0.80251648   -5440.8511 
  729000      1457970    318.51387    -7139.214   -9037.1233    1897.9093   -7490.9389   -1546.1843    40.514626     66502.12    64.400469   0.80007958   -7076.7542 
  730000      1459970    329.94156   -7793.5726   -9759.5754    1966.0027   -8253.7799   -1505.7955    40.489871    66380.294    189.40613   0.80154794   -7610.2108 
  731000      1461970    317.03054   -10181.865   -12070.936    1889.0706   -10508.796   -1562.1395    40.530133     66578.51   -1117.1163   0.79916159   -11266.562 
  732000      1463970    313.70664   -9346.5872   -11215.852    1869.2647   -9653.8027   -1562.0492    40.500137    66430.801   -720.79565   0.80093853   -10044.912 
  733000      1465970    319.46554   -9478.7537   -11382.334    1903.5799   -9854.1259   -1528.2077    40.468056    66273.061   -432.86286   0.80284489   -9897.1263 
  734000      1467970    322.52249   -9461.1948    -11382.99    1921.7952   -9860.3852   -1522.6049    40.482535    66344.224   -621.91494   0.80198373   -10062.936 
  735000      1469970    325.55923   -8286.9839   -10226.874      1939.89   -8693.8624   -1533.0115    40.463665     66251.49   -47.007796   0.80310628   -8332.4033 
  736000      1471970    320.17983   -6532.0132   -8439.8493    1907.8361    -6917.383   -1522.4664     40.47671    66315.587    592.09109   0.80233005   -5959.3754 
  737000      1473970     323.1044   -8146.8931   -10072.156    1925.2626   -8608.6836   -1463.4721    40.446911    66169.229    251.43751   0.80410471   -7904.2533 
  738000      1475970    313.36864   -8338.2719   -10205.523    1867.2507   -8699.7163   -1505.8062    40.471256    66288.781   -18.730807   0.80265449     -8356.38 
  739000      1477970    323.97934   -8523.8049   -10454.281     1930.476    -8924.983   -1529.2979    40.432353    66097.809   -150.35212   0.80497356   -8668.7396 
  740000      1479970    310.06173   -9339.1173   -11186.663     1847.546   -9709.5377   -1477.1257    40.427085    66071.972   -138.03901   0.80528833   -9472.1306 
  741000      1481970    328.08678   -7430.6092     -9385.56    1954.9508   -7772.9379   -1612.6221    40.508668    66472.787   -306.35462   0.80043264   -7727.6008 
  742000      1483970    327.20368   -9412.8753   -11362.564    1949.6887   -9820.8045   -1541.7596    40.531507    66585.283   -629.82028   0.79908031    -10024.48 
  743000      1485970    330.33606   -5979.9665   -7948.3199    1968.3534   -6541.4717   -1406.8482    40.535475    66604.839    1127.5542   0.79884568   -4884.7018 
  744000      1487970    322.62691   -8819.8912   -10742.309    1922.4174   -9148.0995   -1594.2091    40.562932     66740.28   -829.89279   0.79722453   -9627.6578 
  745000      1489970    321.94434   -8296.2595    -10214.61    1918.3502   -8724.7548    -1489.855    40.510108    66479.876    22.793476   0.80034729   -8274.1603 
  746000      1491970    310.95715    -10224.84   -12077.721    1852.8815   -10521.137   -1556.5839    40.497094    66415.827   -1037.7118   0.80111911   -11229.974 
  747000      1493970    322.57867   -10068.735   -11990.865      1922.13   -10438.536   -1552.3291    40.467051    66268.125   -945.93193   0.80290468   -10982.934 
  748000      1495970    318.58269   -9561.9455   -11460.265    1898.3193   -9963.9459    -1496.319    40.374606    65815.002   -295.96748   0.80843252   -9846.0282 
  749000      1497970    324.00124   -7263.0566   -9193.6631    1930.6065    -7656.857   -1536.8061    40.497556    66418.098    148.94833   0.80109171   -7118.7793 
  750000      1499970    325.93552   -8176.7621   -10118.894    1942.1322   -8608.5988   -1510.2955    40.412134    65998.698   -4.7406855   0.80618239   -8181.3251 
  750015      1500000    339.11128    -8121.151   -10141.793    2020.6418   -8607.9685   -1533.8244    40.408548    65981.127   -114.07863   0.80639708   -8230.9251 
Loop time of 5639.44 on 1 procs for 750000 steps with 3000 atoms

Performance: 22.981 ns/day, 1.044 hours/ns, 132.992 timesteps/s
87.4% CPU use with 1 MPI tasks x no OpenMP threads

MPI task timing breakdown:
Section |  min time  |  avg time  |  max time  |%varavg| %total
---------------------------------------------------------------
Pair    | 4274.6     | 4274.6     | 4274.6     |   0.0 | 75.80
Bond    | 0.40818    | 0.40818    | 0.40818    |   0.0 |  0.01
Neigh   | 1139.1     | 1139.1     | 1139.1     |   0.0 | 20.20
Comm    | 35.019     | 35.019     | 35.019     |   0.0 |  0.62
Output  | 2.1153     | 2.1153     | 2.1153     |   0.0 |  0.04
Modify  | 180.39     | 180.39     | 180.39     |   0.0 |  3.20
Other   |            | 7.756      |            |       |  0.14

Nlocal:        3000.00 ave        3000 max        3000 min
Histogram: 1 0 0 0 0 0 0 0 0 0
Nghost:        9141.00 ave        9141 max        9141 min
Histogram: 1 0 0 0 0 0 0 0 0 0
Neighs:       489930.0 ave      489930 max      489930 min
Histogram: 1 0 0 0 0 0 0 0 0 0

Total # of neighbors = 489930
Ave neighs/atom = 163.31000
Ave special neighs/atom = 2.0000000
Neighbor list builds = 57907
Dangerous builds = 8374

write_data npt_simulation_result.lmp
System init for write_data ...
Total wall time: 1:33:59
