LAMMPS (29 Oct 2020)
units		real
atom_style	full

pair_style	lj/cut/coul/cut 10.0
pair_modify	mix geometric

bond_style	zero
angle_style	zero

read_data	methdata.lmp
Reading data file ...
  orthogonal box = (-25.981333 -25.356000 -25.542999) to (25.102667 25.728000 25.541001)
  1 by 1 by 1 MPI processor grid
  reading atoms ...
  3000 atoms
  scanning bonds ...
  1 = max bonds/atom
  scanning angles ...
  1 = max angles/atom
  reading bonds ...
  2000 bonds
  reading angles ...
  1000 angles
Finding 1-2 1-3 1-4 neighbors ...
  special bond factors lj:    0.0      0.0      0.0     
  special bond factors coul:  0.0      0.0      0.0     
     2 = max # of 1-2 neighbors
     1 = max # of 1-3 neighbors
     1 = max # of 1-4 neighbors
     2 = max # of special neighbors
  special bonds CPU = 0.001 seconds
  read_data CPU = 0.009 seconds

pair_coeff	1 1 0.2072 3.748 	#	CH3
pair_coeff	2 2 0.0210 1.580	#	H
pair_coeff	3 3 0.1554 3.192	#	O

bond_coeff 1 1.43
bond_coeff 2 0.945

angle_coeff	1 108.5

min_style   sd
minimize 1e-10 1e-10 100 100
WARNING: Using 'neigh_modify every 1 delay 0 check yes' setting during minimization (../min.cpp:187)
Neighbor list info ...
  update every 1 steps, delay 0 steps, check yes
  max neighbors/atom: 2000, page size: 100000
  master list distance cutoff = 12
  ghost atom cutoff = 12
  binsize = 6, bins = 9 9 9
  1 neighbor lists, perpetual/occasional/extra = 1 0 0
  (1) pair lj/cut/coul/cut, perpetual
      attributes: half, newton on
      pair build: half/bin/newton
      stencil: half/bin/3d/newton
      bin: standard
Per MPI rank memory allocation (min/avg/max) = 8.696 | 8.696 | 8.696 Mbytes
Step Temp E_pair E_mol TotEng Press 
       0            0   -17427.221            0   -17427.221   -3544.8041 
      15            0   -91865.176            0   -91865.176   -15944.121 
Loop time of 0.367489 on 1 procs for 15 steps with 3000 atoms

99.0% CPU use with 1 MPI tasks x no OpenMP threads

Minimization stats:
  Stopping criterion = max force evaluations
  Energy initial, next-to-last, final = 
     -17427.2210874372  -91865.1761216674   -91865.176450676
  Force two-norm initial, final = 114.05111 651.79346
  Force max component initial, final = 2.2186487 15.393020
  Final line search alpha, max atom move = 7.7443729e-10 1.1920929e-08
  Iterations, force evaluations = 15 101

MPI task timing breakdown:
Section |  min time  |  avg time  |  max time  |%varavg| %total
---------------------------------------------------------------
Pair    | 0.35916    | 0.35916    | 0.35916    |   0.0 | 97.73
Bond    | 9.6083e-05 | 9.6083e-05 | 9.6083e-05 |   0.0 |  0.03
Neigh   | 0          | 0          | 0          |   0.0 |  0.00
Comm    | 0.0033319  | 0.0033319  | 0.0033319  |   0.0 |  0.91
Output  | 0          | 0          | 0          |   0.0 |  0.00
Modify  | 0          | 0          | 0          |   0.0 |  0.00
Other   |            | 0.0049     |            |       |  1.33

Nlocal:        3000.00 ave        3000 max        3000 min
Histogram: 1 0 0 0 0 0 0 0 0 0
Nghost:        5624.00 ave        5624 max        5624 min
Histogram: 1 0 0 0 0 0 0 0 0 0
Neighs:       251000.0 ave      251000 max      251000 min
Histogram: 1 0 0 0 0 0 0 0 0 0

Total # of neighbors = 251000
Ave neighs/atom = 83.666667
Ave special neighs/atom = 2.0000000
Neighbor list builds = 0
Dangerous builds = 0

velocity	all create 300.0 2345

timestep	2.0

fix	stiff all shake 0.0001 20 0 b 1	2 a 1
       0 = # of size 2 clusters
       0 = # of size 3 clusters
       0 = # of size 4 clusters
    1000 = # of frozen angles
  find clusters CPU = 0.001 seconds

#fix	1 all nvt temp 300.0 300.0 $(100.0*dt)
fix     1 all npt temp 300.0 300.0 $(100.0*dt) iso 250.0 250.0 $(1000.0*dt)
fix     1 all npt temp 300.0 300.0 200 iso 250.0 250.0 $(1000.0*dt)
fix     1 all npt temp 300.0 300.0 200 iso 250.0 250.0 2000

thermo	1000
thermo_style	custom step time temp etotal pe ke ecoul evdwl lx vol press density enthalpy

dump TRAJ all custom 1000 npt_methanol_simulation.lammpstrj id mol type element xs ys zs
dump_modify TRAJ element CH3 H O

compute myRDF all rdf 50
fix 2 all ave/time 100 1 20000 c_myRDF[*] file methanol_simulation.rdf mode vector

run 750000
Neighbor list info ...
  update every 1 steps, delay 10 steps, check yes
  max neighbors/atom: 2000, page size: 100000
  master list distance cutoff = 12
  ghost atom cutoff = 12
  binsize = 6, bins = 9 9 9
  2 neighbor lists, perpetual/occasional/extra = 1 1 0
  (1) pair lj/cut/coul/cut, perpetual
      attributes: half, newton on
      pair build: half/bin/newton
      stencil: half/bin/3d/newton
      bin: standard
  (2) compute rdf, occasional, copy from (1)
      attributes: half, newton on
      pair build: copy
      stencil: none
      bin: none
Per MPI rank memory allocation (min/avg/max) = 8.447 | 8.447 | 8.447 Mbytes
Step Time Temp TotEng PotEng KinEng E_coul E_vdwl Lx Volume Press Density Enthalpy 
      15            0    450.07504   -89183.342   -91865.176    2681.8348   -90733.712   -1131.4641       51.084    133307.53   -16962.633   0.39912965   -122161.31 
    1000         1970    311.99963   -2598.6642   -4457.7575    1859.0932   -3642.4357   -815.32184    48.019251    110725.11   -231.91366   0.48053225   -2973.1613 
    2000         3970    305.89138   -3906.7834   -5729.4798    1822.6964   -4865.8646   -863.61518    46.078164    97833.029   -113.46388   0.54385506    -4068.673 
    3000         5970    296.90639   -1509.5239    -3278.682    1769.1581   -2333.9656   -944.71635    44.783939    89818.723    831.11753   0.59238193   -420.83143 
    4000         7970    295.40689   -4932.9285   -6693.1517    1760.2231   -5596.7025   -1096.4492    43.982818    85084.244   -59.134709   0.62534478   -5006.3068 
    5000         9970    290.07219   -4612.3545     -6340.79    1728.4355   -5267.5423   -1073.2477    43.341343    81415.502    470.63361   0.65352405   -4053.5422 
    6000        11970     291.0042   -7357.8391   -9091.8282    1733.9891   -7885.5036   -1206.3246    42.843248    78640.661     -547.283   0.67658368   -7985.5144 
    7000        13970    300.94319   -5094.6136   -6887.8255    1793.2119   -5640.4107   -1247.4148    42.454444    76519.035     130.5933   0.69534317   -4948.8778 
    8000        15970    311.26251   -6294.8347   -8149.5357     1854.701   -6833.1286    -1316.407    42.036088    74279.141   -181.86464    0.7163113   -6491.8459 
    9000        17970    299.22979   -2581.8483   -4364.8506    1783.0024   -2994.2645   -1370.5862    41.726903    72652.145    1151.5582   0.73235261   -1361.7068 
   10000        19970    299.76202   -5405.8679   -7192.0417    1786.1738   -5825.3475   -1366.6941    41.609174    72038.935    401.20184   0.73858655   -4984.3596 
   11000        21970    301.39218   -6297.9084   -8093.7957    1795.8873    -6623.556   -1470.2397    41.320935    70552.177   -37.622974    0.7541509   -6336.6198 
   12000        23970    299.81854   -6705.5465    -8492.057    1786.5105   -7034.4971   -1457.5599     41.30279    70459.277   -228.22056   0.75514525   -6940.0605 
   13000        25970    302.07648   -6593.6707   -8393.6355    1799.9648   -6986.7357   -1406.8998    41.221536    70044.254    255.72746    0.7596196   -6332.4391 
   14000        27970    297.60857   -5677.4572   -7450.7993    1773.3421   -6034.6533    -1416.146    41.173807    69801.228    597.54374   0.76226436     -5069.17 
   15000        29970    294.61191   -5622.9876   -7378.4737    1755.4861   -5980.3404   -1398.1334     41.08932    69372.421    815.84986   0.76697609   -4797.5714 
   16000        31970    300.03406   -6410.8746   -8198.6694    1787.7947   -6790.5273   -1408.1421    41.053089    69189.074    365.83356   0.76900853   -6041.7297 
   17000        33970     301.4673   -7579.0581    -9375.393    1796.3349   -7966.7391   -1408.6539    40.916597    68501.252    198.33464   0.77673015   -7380.9178 
   18000        35970    298.56751   -7710.3065   -9489.3626    1779.0561   -8054.9675   -1434.3951    40.865482    68244.849    60.538458   0.77964841   -7650.0537 
   19000        37970    302.64773   -4603.1304   -6406.4991    1803.3687   -4907.1004   -1499.3987    40.742076    67628.456    980.15705   0.78675444   -3636.4097 
   20000        39970    298.18684   -7432.2422     -9209.03    1776.7878   -7785.4989    -1423.531    40.793432    67884.517    294.21204    0.7837868   -7140.9646 
   21000        41970    296.18648   -9281.6363   -11046.505    1764.8684   -9565.0186   -1481.4861    40.790751    67871.131   -506.89448   0.78394138   -9783.3761 
   22000        43970    299.36145   -6507.8386   -8291.6254    1783.7869   -6756.5707   -1535.0548     40.67435    67291.756    220.15804   0.79069103   -6291.7796 
   23000        45970    296.83984   -6474.7281   -8243.4896    1768.7615   -6683.6161   -1559.8735    40.565457    66752.744    357.54372   0.79707567    -6126.652 
   24000        47970    303.35712    -8183.405   -9991.0007    1807.5957   -8472.4165   -1518.5842    40.549438    66673.697   -101.62286   0.79802067   -8282.2198 
   25000        49970    304.30273   -4685.3633   -6498.5935    1813.2302   -5004.7331   -1493.8604    40.517732    66517.417    1298.0257   0.79989559   -3426.1637 
   26000        51970    303.84848   -6519.6252   -8330.1487    1810.5235   -6796.9383   -1533.2104    40.475287    66308.592    469.08565   0.80241469   -6065.9993 
   27000        53970    301.33699   -10555.048   -12350.606    1795.5584   -10822.908   -1527.6977    40.525604    66556.193   -904.14625   0.79942956   -11432.661 
   28000        55970    301.37602   -8686.6168   -10482.408     1795.791   -8897.0097   -1585.3981    40.480665     66335.03    -565.9198   0.80209489   -9234.1037 
   29000        57970    296.98446   -8516.0523   -10285.676    1769.6232   -8734.0344   -1551.6412    40.460513    66236.007   -298.69539   0.80329401   -8804.5874 
   30000        59970    298.31045   -8269.4522   -10046.977    1777.5243   -8534.0183   -1512.9583    40.450036    66184.568    45.635273   0.80391834   -8225.4035 
   31000        61970     297.0459   -6046.9501   -7816.9394    1769.9894   -6359.2832   -1457.6562    40.436543     66118.36    1150.7938   0.80472335   -4937.2759 
   32000        63970    308.83039   -6015.3152   -7855.5241    1840.2089   -6325.0335   -1530.4907    40.382998    65856.047    892.97662   0.80792866   -5157.6622 
   33000        65970    304.80391   -9523.6808   -11339.897    1816.2165   -9840.4239   -1499.4734    40.467392    66269.798   -364.34173   0.80288442   -9875.8087 
   34000        67970    292.98009   -8936.0383   -10681.801    1745.7627   -9169.5024   -1512.2986    40.416031    66017.791   -141.05642   0.80594923   -9071.8477 
   35000        69970    309.94543   -7446.5918   -9293.4448     1846.853   -7779.9323   -1513.5124    40.426481    66069.012    376.70215   0.80532442   -7083.6209 
   36000        71970    303.05172   -8942.5864   -10748.362    1805.7759   -9209.2741   -1539.0882    40.382798    65855.072   -318.22735   0.80794062   -9248.2211 
   37000        73970    299.74282   -7202.7091   -8988.7685    1786.0593   -7426.9422   -1561.8263    40.415913    66017.213    113.61483    0.8059563   -7093.3215 
   38000        75970    304.90273   -8148.2351   -9965.0405    1816.8054   -8504.6065    -1460.434    40.465343    66259.733    338.27527   0.80300637   -7821.3495 
   39000        77970    298.16238   -8349.1416   -10125.784    1776.6421   -8609.4086   -1516.3751    40.389381    65887.281   -26.560785   0.80754566   -8374.6638 
   40000        79970    301.56369   -7489.1727    -9286.082    1796.9093   -7812.3718   -1473.7101    40.386659    65873.964    570.54737   0.80770892   -6941.0455 
   41000        81970    300.90268   -9014.2074   -10807.178    1792.9705   -9307.6675   -1499.5103    40.331187    65602.894    67.649804   0.81104635   -8949.4833 
   42000        83970    300.80312   -7340.9423   -9133.3196    1792.3773    -7655.476   -1477.8435    40.385243    65867.035    485.78337   0.80779388   -6874.2972 
   43000        85970    301.61975   -8090.9571   -9888.2004    1797.2433   -8355.6405   -1532.5599    40.304503    65472.768    189.70125   0.81265829   -7909.8202 
   44000        87970    296.30169    -8605.282   -10370.837    1765.5549   -8834.6476   -1536.1893     40.36472    65766.669   -141.40156   0.80902666   -8740.9058 
   45000        89970    308.70589    -6664.167   -8503.6341    1839.4671   -6901.0831    -1602.551    40.314156    65519.824    131.05198   0.81207464   -6538.9417 
   46000        91970    297.92308   -6012.1113   -7787.3275    1775.2162    -6231.851   -1555.4765    40.298933    65445.626    764.37517   0.81299533   -5282.5478 
   47000        93970    300.48486   -6272.4124   -8062.8933    1790.4809   -6481.8853    -1581.008    40.281853    65362.451    586.36695   0.81402988   -5713.4615 
   48000        95970     307.1265   -5874.1346   -7704.1907     1830.056   -6187.1296   -1517.0611    40.246932    65192.608     1068.375   0.81615063   -4858.3586 
   49000        97970    307.33629   -10815.482   -12646.788    1831.3061   -11116.393   -1530.3955    40.291767    65410.723   -774.15576   0.81342914   -11553.987 
   50000        99970    306.17642   -8528.9905   -10353.385    1824.3948   -8790.6988   -1562.6866    40.182257    64878.827    32.153329   0.82009787   -8498.5673 
   51000       101970    303.65157   -7076.2847   -8885.6349    1809.3502   -7308.5575   -1577.0774    40.231085    65115.627    264.02577    0.8171155    -6825.554 
   52000       103970    302.28961   -7004.2077   -8805.4425    1801.2348   -7181.0248   -1624.4176    40.221018    65066.757   -54.077499   0.81772921   -7055.5236 
   53000       105970    297.53575   -4886.8773   -6659.7855    1772.9082   -5062.9918   -1596.7938     40.15079    64726.525    1135.1157   0.82202757   -3815.3622 
   54000       107970    299.53291   -8380.0551   -10164.864    1784.8086   -8638.3726   -1526.4911    40.171301    64825.772    173.43416   0.82076906   -8216.0875 
   55000       109970    297.68856   -7876.0566   -9649.8754    1773.8188   -8122.8147   -1527.0607    40.176057    64848.799     330.4703   0.82047762   -7563.5133 
   56000       111970    294.80535    -9203.949   -10960.588    1756.6387   -9405.9939   -1554.5938    40.174133    64839.483   -251.98751   0.82059551   -9442.2328 
   57000       113970    298.76298   -8499.1515   -10279.372    1780.2208   -8755.2992   -1524.0731    40.190566     64919.08     187.9789   0.81958937   -8321.1772 
   58000       115970    295.08044   -9238.0779   -10996.356    1758.2779   -9422.5795   -1573.7764    40.226835    65094.996    -360.1595   0.81737447   -9579.9931 
   59000       117970    296.14454   -8918.4013    -10683.02    1764.6185   -9164.0189   -1519.0009    40.141726    64682.699    128.83014   0.82258454   -8796.8719 
   60000       119970    287.45445   -6932.5579   -8645.3953    1712.8374   -7063.6219   -1581.7734    40.178674    64861.471     474.6699   0.82031732   -6483.5496 
   61000       121970    300.37746   -7939.5604   -9729.4013    1789.8409   -8206.3647   -1523.0366    40.127595    64614.413    522.45288   0.82345386   -7447.2348 
   62000       123970    295.56445   -10648.239   -12409.401     1761.162   -10917.135   -1492.2654    40.178008    64858.244   -454.41699   0.82035813   -11078.068 
   63000       125970    313.14139   -8888.3791   -10754.276    1865.8966   -9185.7109   -1568.5648    40.158856    64765.539   -103.12106   0.82153239    -8985.781 
   64000       127970    302.28968   -7279.3597   -9080.5949    1801.2352   -7491.2897   -1589.3052    40.108852    64523.912    457.92549   0.82460884   -6848.4449 
   65000       129970    303.95457   -6499.7498   -8310.9054    1811.1557   -6810.7419   -1500.1635    40.085731    64412.391    1133.7314   0.82603653   -5434.7354 
   66000       131970     293.7011   -7933.9942   -9684.0531    1750.0589   -8109.1807   -1574.8724    40.047249    64227.063    304.66322   0.82842007   -7648.6204 
   67000       133970    295.30334   -8902.9628   -10662.569    1759.6061   -9153.3888     -1509.18    40.065255    64313.734    318.20997   0.82730367   -8604.4978 
   68000       135970    298.11787   -7129.8006   -8906.1774    1776.3768   -7372.4132   -1533.7642    40.058805    64282.678    819.53238   0.82770336   -6361.4915 
   69000       137970    307.25625   -7733.8401   -9564.6693    1830.8292   -8146.7964   -1417.8729    40.042054    64202.073    1273.9185   0.82874253    -6541.043 
   70000       139970    300.82587   -10204.899   -11997.412    1792.5129   -10508.979    -1488.433    40.077553    64372.978   -125.02329   0.82654229   -10322.273 
   71000       141970     292.9943   -8903.5151   -10649.363    1745.8474   -9132.0223   -1517.3402    40.095787    64460.878    175.02042   0.82541519   -8738.9792 
   72000       143970    302.47084   -9412.2963   -11214.611    1802.3146   -9684.1785   -1530.4324    40.093081    64447.828    65.161348   0.82558233   -9351.0508 
   73000       145970    294.26193   -8235.0025   -9988.4032    1753.4007   -8421.4766   -1566.9265     40.17764    64856.465    18.599696   0.82038063   -8217.4097 
   74000       147970    297.31788   -10721.518   -12493.128      1771.61   -11044.088   -1449.0408    40.177003    64853.379   -190.37147   0.82041967   -10901.575 
   75000       149970    301.56489   -9088.8573   -10885.774    1796.9164   -9297.5242   -1588.2495    40.165913    64799.692   -379.72714    0.8210994   -9447.7136 
   76000       151970    306.28075   -8373.2701   -10198.287    1825.0165   -8708.9433   -1489.3433    40.115949    64558.172    466.72751   0.82417123   -7933.8393 
   77000       153970    302.07656   -6204.7709   -8004.7361    1799.9652   -6457.9399   -1546.7963    40.153348    64738.895    966.73579   0.82187051    -5292.027 
   78000       155970    299.80364   -8888.7441   -10675.166    1786.4217   -9100.4264   -1574.7395      40.0213    64102.293   -31.770733   0.83003253   -8918.4455 
   79000       157970    303.72948    -7479.878   -9289.6925    1809.8144   -7810.5117   -1479.1807    40.052292    64251.328    1080.7498   0.82810722   -6467.1725 
   80000       159970    304.05493   -10057.884   -11869.638    1811.7537   -10313.992   -1555.6457    40.139286    64670.902   -644.37974   0.82273459   -10665.636 
   81000       161970    301.99888   -6263.1803   -8062.6827    1799.5024   -6528.2192   -1534.4636    40.024853    64119.366    1258.3125   0.82981151   -5086.5132 
   82000       163970    304.39331   -7149.5321    -8963.302      1813.77   -7401.8861    -1561.416    40.003438    64016.503    695.81039   0.83114487    -6499.913 
   83000       165970    300.06919   -10253.639   -12041.643    1788.0041   -10495.775   -1545.8684    40.138596     64667.57   -549.35788   0.82277699   -10771.744 
   84000       167970    300.27751   -9566.0258   -11355.271    1789.2454   -9875.5244   -1479.7467    40.065193    64313.439    224.52945   0.82730747   -9355.4294 
   85000       169970    306.73426   -6327.8652   -8155.5841    1827.7188   -6567.7609   -1587.8232    39.999364    63996.948    966.26134   0.83139884   -5426.0247 
   86000       171970    301.71817   -10364.423   -12162.253    1797.8297   -10623.958   -1538.2945     40.07815    64375.852   -451.32864   0.82650539   -10788.156 
   87000       173970    301.72934   -8519.1664   -10317.063    1797.8963   -8812.2992   -1504.7635     40.06168    64296.523    501.82159   0.82752513   -8048.6088 
   88000       175970    304.82796   -7993.5721    -9809.932    1816.3599   -8253.4356   -1556.4964    39.961466    63815.217    642.89297   0.83376647   -7395.2448 
   89000       177970    297.65969   -10008.228   -11781.875    1773.6467   -10279.289   -1502.5856    40.059981     64288.34   -63.667205   0.82763046   -10067.921 
   90000       179970     304.4804   -7674.0361    -9488.325    1814.2889   -7904.6902   -1583.6348     40.14253    64686.586    209.84966   0.82253511   -7476.0666 
   91000       181970    297.59444   -9690.4638   -11463.722    1773.2579   -9909.7988   -1553.9229    40.026782    64128.638   -206.50758   0.82969154   -9883.6001 
   92000       183970    293.86133   -7852.5578   -9603.5715    1751.0137   -8050.9959   -1552.5756    40.115135    64554.239    365.46563   0.82422144   -7508.4875 
   93000       185970    306.31408   -7474.9747   -9300.1898    1825.2151    -7734.114   -1566.0758    40.060493    64290.808     375.5669   0.82759868   -7122.8374 
   94000       187970    295.01368   -8861.0765   -10618.957    1757.8801   -9064.3078   -1554.6488    40.084341     64405.69   -23.627393   0.82612247   -8883.2695 
   95000       189970    298.16632   -7360.7767   -9137.4422    1776.6656   -7621.9103    -1515.532    40.061052    64293.498     771.0705   0.82756406   -6637.7788 
   96000       191970    300.51661   -9452.3155   -11242.986    1790.6701   -9701.9325   -1541.0531    40.113313    64545.446   -192.55601   0.82433373   -9633.5741 
   97000       193970    298.05965   -9492.6085   -11268.638      1776.03   -9654.4708   -1614.1677    40.063028     64303.01   -504.48875   0.82744164   -9965.7148 
   98000       195970    296.57824   -8116.8801   -9884.0829    1767.2027   -8270.9102   -1613.1726    40.071145    64342.105    80.742289   0.82693888   -8041.1145 
   99000       197970     299.6224   -7824.8923   -9610.2341    1785.3418   -7989.3826   -1620.8514    40.090521    64435.483   -204.00583   0.82574051   -8016.6017 
  100000       199970    299.52383   -7124.0236   -8908.7781    1784.7544   -7347.6861    -1561.092    40.073472    64353.315     698.4321   0.82679483   -6468.5262 
  101000       201970    299.15245   -9484.0266   -11266.568    1782.5416   -9714.7766   -1551.7916    40.105916    64509.746   -345.05593   0.82478992   -9808.6581 
  102000       203970    301.61152   -7015.5747    -8812.769    1797.1943   -7222.8186   -1589.9504    40.124296    64598.475     333.5797   0.82365703   -6701.3084 
  103000       205970    311.67692   -10194.362   -12051.532    1857.1704   -10462.236   -1589.2964    40.143344    64690.522   -781.35137   0.82248507   -10931.524 
  104000       207970    299.55736   -4475.7887   -6260.7429    1784.9542   -4704.3851   -1556.3578    40.086778    64417.439    1558.0202   0.82597181   -3012.0874 
  105000       209970    307.93827    -5749.392   -7584.2851    1834.8931   -6024.4047   -1559.8804    40.039639    64190.454    1120.6396   0.82889253   -4700.3032 
  106000       211970     298.9184   -5184.7882   -6965.9351    1781.1469   -5425.1524   -1540.7827    40.024712    64118.693    1469.0704   0.82982022   -3811.0526 
  107000       213970    302.42474   -6755.0985   -8557.1384    1802.0399   -6956.4808   -1600.6576    40.081367    64391.357    335.49716   0.82630636   -6440.0392 
  108000       215970    299.59144   -9484.2891   -11269.446    1785.1574   -9656.1209   -1613.3256    40.121125    64583.161   -608.87681   0.82385233   -10057.777 
  109000       217970    304.66118   -9438.0642    -11253.43    1815.3661   -9697.6452    -1555.785    40.072277    64347.555   -180.30185   0.82686884   -9607.2672 
  110000       219970    310.31742   -9834.8126   -11683.882    1849.0696   -10128.841   -1555.0416    40.136598    64657.914   -473.85438   0.82289986   -10281.643 
  111000       221970     297.2368   -9349.4516   -11120.578    1771.1269   -9498.8979   -1621.6805    40.107315    64516.494   -669.48952   0.82470365   -9979.3789 
  112000       223970    301.27643   -9206.6288   -11001.826    1795.1976    -9473.607   -1528.2194    40.093358    64449.164   -92.115619   0.82556522   -9293.2106 
  113000       225970    293.73231    -9072.698   -10822.943    1750.2449   -9279.0258   -1543.9171    40.115617    64556.568   -116.30069   0.82419171   -9182.1941 
  114000       227970    297.09297    -6559.804   -8330.0738    1770.2698   -6814.8159    -1515.258    40.098416    64473.558    1010.6541   0.82525286   -5609.5055 
  115000       229970    294.92966   -7196.3614   -8953.7409    1757.3795   -7341.0758   -1612.6651    40.123131    64592.848    201.82486   0.82372879   -7006.2383 
  116000       231970    304.09492   -7411.5085   -9223.5004    1811.9919   -7704.1864    -1519.314    40.139506    64671.966    497.21684   0.82272106   -6942.5464 
  117000       233970    293.24253   -6542.3179   -8289.6443    1747.3264   -6752.9102   -1536.7342    40.067136    64322.796    941.31872   0.82718712   -5659.2838 
  118000       235970    298.32965   -8160.2751   -9937.9139    1777.6388   -8547.2189    -1390.695    40.129508    64623.656    1115.7884   0.82333609   -7108.6783 
  119000       237970    303.27201   -8234.5463   -10041.635    1807.0885   -8587.6881   -1453.9467    40.055998    64269.167    770.06188   0.82787736   -7512.7674 
  120000       239970     298.4149   -8695.2884   -10473.435    1778.1468   -8935.6307   -1537.8045    40.151099    64728.019   -15.121693    0.8220086   -8709.5632 
  121000       241970    300.84608   -6570.7464   -8363.3796    1792.6333   -6817.8494   -1545.5302    40.054939    64264.069    871.79266   0.82794303     -5753.68 
  122000       243970     296.4088   -6752.8736   -8519.0667    1766.1931   -6960.3225   -1558.7442    40.055302    64265.819     752.2794   0.82792049   -6047.7989 
  123000       245970    305.69201   -7536.7042   -9358.2126    1821.5084   -7876.0511   -1482.1615    40.088433    64425.417      803.939   0.82586952   -6781.3403 
  124000       247970     314.0047   -8312.1274   -10183.168    1871.0408   -8606.7371    -1576.431    40.195044    64940.782   -217.73203   0.81931548   -8518.3402 
  125000       249970    293.29544   -6721.6177   -8469.2594    1747.6417   -6968.1944    -1501.065    40.107517    64517.471    989.07921   0.82469116   -5790.9721 
  126000       251970    298.90084   -8476.2359   -10257.278    1781.0423   -8669.3506   -1587.9276     40.22304    65076.571   -317.47199    0.8176059   -8777.5407 
  127000       253970      293.739   -7480.9877   -9231.2725    1750.2847   -7738.4469   -1492.8256    40.061424    64295.287    847.59239   0.82754103   -6686.2166 
  128000       255970    298.61845    -9110.916   -10890.276    1779.3596    -9431.447   -1458.8286    40.099276     64477.71    417.32498   0.82519972   -8718.4881 
  129000       257970    298.06212   -9237.5912   -11013.636    1776.0446   -9417.9861   -1595.6498    40.099384    64478.229   -396.56368   0.82519308   -9610.4994 
  130000       259970    292.76909   -9155.2017   -10899.707    1744.5054   -9417.2202   -1482.4868    40.107626    64517.994    238.75257   0.82468448   -8930.5525 
  131000       261970    301.89051   -9343.6751   -11142.532    1798.8567   -9632.9514   -1509.5804    40.036348    64174.628    48.826267   0.82909694   -9297.9776 
  132000       263970     301.0274    -7862.105   -9655.8187    1793.7137   -8169.6063   -1486.2124    40.119573    64575.669    588.11226   0.82394791   -7308.2386 
  133000       265970    296.25309   -8268.9055   -10034.171    1765.2653    -8523.487   -1510.6838     40.12868    64619.655    367.66478   0.82338707    -7922.414 
  134000       267970     294.7314   -7958.7245   -9714.9227    1756.1981   -8276.9605   -1437.9621     40.04333    64208.207    1063.6756   0.82866335   -6962.6871 
  135000       269970    297.20142    -8609.065   -10379.981     1770.916   -8907.2627   -1472.7184    40.088107    64423.844    500.60819   0.82588969   -8138.7157 
  136000       271970    306.77506    -8159.868   -9987.8299     1827.962   -8466.8467   -1520.9832    40.086237    64414.831      342.064   0.82600524   -7838.5247 
  137000       273970    310.27638   -8242.2591   -10091.084     1848.825   -8535.2196   -1555.8645    40.096117    64462.471    137.00515    0.8253948   -8113.4579 
  138000       275970    295.24884   -11399.665   -13158.946    1759.2813   -11703.386   -1455.5605    40.037765    64181.445   -209.87173   0.82900889   -11596.109 
  139000       277970    295.51835   -8880.8768   -10641.764    1760.8873    -9093.569   -1548.1952    40.083069    64399.562     88.15688   0.82620109   -8798.0798 
  140000       279970    304.69655   -9075.4676   -10891.044    1815.5768   -9318.8373   -1572.2071    40.131998    64635.683   -240.83809   0.82318289   -9302.4924 
  141000       281970    298.05202   -7152.7135   -8928.6979    1775.9845   -7385.0957   -1543.6022    40.101441    64488.152     572.0769    0.8250661   -6614.6788 
  142000       283970      301.125   -8817.4756   -10611.771    1794.2952   -9099.8417   -1511.9291    40.132878    64639.936    54.235604   0.82312873   -8766.3473 
  143000       285970    295.20291   -8516.6534   -10275.661    1759.0077   -8790.1003   -1485.5608    40.133334    64642.141    237.49364   0.82310064   -8292.7588 
  144000       287970    313.35101    -7269.104   -9136.2497    1867.1456   -7685.7586   -1450.4911    40.156568    64754.472    983.03559    0.8216728   -6340.7473 
  145000       289970    296.70269   -7817.4406   -9585.3849    1767.9443   -8131.3964   -1453.9885     40.22121    65067.693    595.17067   0.81771745    -7252.656 
  146000       291970     294.8836   -8050.7515   -9807.8565     1757.105   -8354.7235    -1453.133    40.163747     64789.21    533.91143   0.82123225   -7546.2671 
  147000       293970    303.58241   -8443.3153   -10252.253    1808.9381   -8785.1435   -1467.1099    40.109192    64525.555    505.61107   0.82458785   -7967.5155 
  148000       295970    309.59977   -10964.218   -12809.012    1844.7934   -11323.884   -1485.1277     40.22653    65093.512   -808.04877   0.81739311   -11731.317 
  149000       297970    297.09881   -7435.0777   -9205.3824    1770.3047   -7707.7502   -1497.6322    40.083233    64400.352    729.53221   0.82619095   -6749.8915 
  150000       299970    294.81585   -9828.7278   -11585.429    1756.7013    -10090.44   -1494.9888    40.107234    64516.106   -147.32378   0.82470862   -9967.3449 
  151000       301970    295.31557    -5576.157   -7335.8359    1759.6789   -5872.3796   -1463.4563    40.113734    64547.478    1564.4649   0.82430777   -4103.4342 
  152000       303970     293.4607   -8863.0257   -10611.652    1748.6265   -9076.6692   -1534.9829    40.145741    64702.109   -204.07079   0.82233778   -9055.5897 
  153000       305970    306.74455   -8934.3334   -10762.114    1827.7801   -9221.5254   -1540.5881    40.235909    65139.054   -354.05265   0.81682163   -9270.6786 
  154000       307970    297.60738   -9720.0574   -11493.392     1773.335   -9963.5485   -1529.8439    40.158989    64766.183   -341.81632   0.82152423   -10042.919 
  155000       309970    299.72666   -8477.2836   -10263.247     1785.963   -8705.7017   -1557.5449    40.132934    64640.208   -86.817006   0.82312526    -8559.127 
  156000       311970    301.75729   -7959.0341    -9757.097    1798.0629   -8240.2578   -1516.8392    40.125404    64603.826    432.84535    0.8235888   -7551.2156 
  157000       313970    298.76387   -7096.9694   -8877.1956    1780.2261   -7379.1999   -1497.9957    40.185434    64894.214    668.23622   0.81990342   -6464.5403 
  158000       315970     307.7991   -10313.902   -12147.966    1834.0638   -10643.034   -1504.9315    40.137954    64664.465   -444.68998   0.82281648   -10733.273 
  159000       317970    291.33243   -9431.3922   -11167.337    1735.9448   -9620.6145   -1546.7225    40.143292    64690.267   -355.03103    0.8224883    -9766.343 
  160000       319970    299.94263   -9015.5481   -10802.798    1787.2499   -9264.9328   -1537.8652    40.106368    64511.925   -121.42553   0.82476206   -9129.7902 
  161000       321970    295.99617   -5845.0159   -7608.7503    1763.7344   -6107.1343   -1501.6159    40.063278    64304.216    1271.7271   0.82742612   -4652.3762 
  162000       323970    303.25351   -10688.503   -12495.481    1806.9783   -11046.533   -1448.9486    40.124311    64598.551   -166.83415   0.82365606   -10845.678 
  163000       325970      297.431   -8018.6849    -9790.969    1772.2841   -8265.1903   -1525.7787    40.157134    64757.211    258.71642   0.82163804   -7774.3486 
  164000       327970    295.57497   -6124.1178   -7885.3424    1761.2246   -6323.2644    -1562.078    40.154576    64744.835    634.57995    0.8217951   -5524.9239 
  165000       329970    300.01136   -8632.8575   -10420.517    1787.6595   -8879.2623   -1541.2546    40.126759    64610.375   -175.35536   0.82350532   -8798.0906 
  166000       331970    301.08848   -7857.4466   -9651.5243    1794.0777   -8106.2622    -1545.262    40.133067     64640.85    211.38597   0.82311708   -7658.1687 
  167000       333970     302.2204   -7063.0108   -8863.8331    1800.8223   -7328.4605   -1535.3726     40.10407    64500.836    655.80011   0.82490386   -6446.1137 
  168000       335970    303.65949   -7849.4115   -9658.8088    1809.3973   -8135.8797   -1522.9291    40.160968    64775.761    266.61814   0.82140275   -7597.5405 
  169000       337970    305.15894   -8587.6789   -10406.011    1818.3321   -8820.2232   -1585.7877    40.088115    64423.885   -109.93448   0.82588916   -8690.9685 
  170000       339970    305.51069   -9926.0268   -11746.455     1820.428   -10208.824   -1537.6306    40.081321    64391.134   -373.44625   0.82630923   -10276.722 
  171000       341970    302.58534    -8031.613   -9834.6098    1802.9969   -8379.3275   -1455.2823     40.11981    64576.812    748.73386   0.82393334   -7326.4655 
  172000       343970    290.31363   -9832.2134   -11562.088    1729.8742   -10012.555   -1549.5325    40.057008     64274.03    -294.5592   0.82781472   -10108.325 
  173000       345970    294.51366   -8623.6739   -10378.575    1754.9007   -8870.4355   -1508.1391    40.067253    64323.356    292.41975   0.82717991   -8349.3578 
  174000       347970    310.45951   -8966.2084   -10816.125    1849.9163    -9301.585   -1514.5396    40.149454    64720.061     72.14545   0.82210967   -8898.1121 
  175000       349970    303.26235   -9622.7366   -11429.768    1807.0309   -9846.6926   -1583.0749    40.176092     64848.97   -666.86644   0.82047545   -10253.429 
  176000       351970    293.58296   -8955.0479   -10704.403     1749.355   -9173.9217   -1530.4812    40.133636    64643.597   -100.30961   0.82308211   -9049.6159 
  177000       353970    297.39721   -9696.3499   -11468.433    1772.0827   -9918.1024   -1550.3301    40.075081    64361.064   -377.15779   0.82669529   -10050.365 
  178000       355970    297.98747   -5099.0901   -6874.6899    1775.5998   -5353.6145   -1521.0754    40.053804    64258.608     1567.141   0.82801339   -3630.4503 
  179000       357970    293.73781   -9210.0816   -10960.359    1750.2777   -9430.0851   -1530.2741    40.034367    64165.103    21.185466   0.82922002   -9190.2566 
  180000       359970    304.23239   -7807.0231   -9619.8342    1812.8111   -8111.6165   -1508.2177    40.075758    64364.327    560.48431   0.82665337   -7280.9034 
  181000       361970     303.9907    -7772.389   -9583.7599     1811.371   -8102.2034   -1481.5565      40.1371    64660.338    576.42911   0.82286901   -7228.8136 
  182000       363970    302.80607   -7385.4272   -9189.7394    1804.3122   -7734.3673    -1455.372    40.041818    64200.937    961.28928   0.82875718   -6485.3674 
  183000       365970    304.91525    -11694.18   -13511.059      1816.88   -12018.818   -1492.2414    40.108279    64521.145   -846.08544    0.8246442   -12490.325 
  184000       367970    297.18229   -10380.022   -12150.825    1770.8021   -10619.993   -1530.8313     40.11665    64561.556   -476.50361   0.82412803   -10828.681 
  185000       369970    297.97119   -9440.5535   -11216.056    1775.5028   -9705.8304    -1510.226    40.082843    64398.472   -130.33022   0.82621508   -9562.9578 
  186000       371970    300.12789   -7927.0438   -9715.3977    1788.3539   -8145.2393   -1570.1584    40.123679    64595.499    58.063518   0.82369498   -7872.3446 
  187000       373970    299.30072   -7396.2816   -9179.7067    1783.4251   -7670.8701   -1508.8366    40.154325    64743.623    508.42927   0.82181048   -6916.2129 
  188000       375970     297.3465   -7039.8687   -8811.6492    1771.7805   -7289.3171    -1522.332    40.113738    64547.497    851.58301   0.82430754   -6238.2233 
  189000       377970    298.27837   -6783.2276   -8560.5608    1777.3332   -7038.9312   -1521.6296    40.155518    64749.393    780.62606   0.82173725   -6046.0797 
  190000       379970    295.51315   -6757.2141   -8518.0704    1760.8563   -7020.8129   -1497.2575    40.112289    64540.503    946.63391   0.82439686   -5866.1883 
  191000       381970    304.98723   -5818.2659   -7635.5748    1817.3089   -6096.9651   -1538.6097     40.13167      64634.1    1002.2725   0.82320305   -4873.5017 
  192000       383970    301.57702   -6528.1976   -8325.1863    1796.9887   -6790.6184   -1534.5678    40.093078    64447.814    884.18062   0.82558251   -5697.1516 
  193000       385970    296.22412   -8649.4631   -10414.556    1765.0927   -8895.3746   -1519.1812    40.181291    64874.145   -26.557623   0.82015706   -8674.5899 
  194000       387970    306.47491   -4714.7081   -6540.8816    1826.1735   -4983.4738   -1557.4077    40.101257    64487.266    1362.1178   0.82507744   -3433.6627 
  195000       389970    298.15814   -8281.4694   -10058.086    1776.6168   -8508.5832   -1549.5031    40.146095    64703.821    27.005233   0.82231601   -8255.9863 
  196000       391970    307.21988   -9066.6035   -10897.216    1830.6124   -9382.2824   -1514.9336    40.118391    64569.959   -65.535883   0.82402078   -9128.3178 
  197000       393970    292.55701   -10269.409   -12012.651    1743.2417   -10486.788   -1525.8625    40.097816    64470.667    -382.0755   0.82528986   -10628.651 
  198000       395970    301.88867   -9533.9155   -11332.761    1798.8457    -9861.448   -1471.3132    40.067973    64326.826    191.29908   0.82713529   -9354.4501 
  199000       397970    300.84442   -6441.1888   -8233.8121    1792.6234   -6678.5672   -1555.2449    40.064535    64310.266    778.53032   0.82734828   -5711.0057 
  200000       399970    297.77332   -8958.0619   -10732.386    1774.3238   -9222.5583   -1509.8273    40.171696    64827.686   -44.741908   0.82074484   -9000.3629 
  201000       401970     312.6442   -10431.564   -12294.498     1862.934   -10832.919   -1461.5788    40.111304    64535.746   -200.37176   0.82445763   -10620.151 
  202000       403970    302.58541   -6767.1937   -8570.1911    1802.9973   -7036.9073   -1533.2838    40.124314    64598.563    731.75069   0.82365591   -6077.8087 
  203000       405970    301.18639   -8759.9723   -10554.633    1794.6611   -9097.7868   -1456.8465    40.159674      64769.5    338.95732   0.82148214   -8439.7943 
  204000       407970    297.21833   -7897.9107   -9668.9275    1771.0168   -8135.8588   -1533.0687     40.07654    64368.097    393.27599   0.82660496   -7528.7257 
  205000       409970    286.77748   -9245.6256   -10954.429    1708.8035    -9485.104   -1469.3251    40.203703    64982.763   -15.134208   0.81878618   -9259.9684 
  206000       411970    295.49703   -9997.1824   -11757.943    1760.7602    -10279.65   -1478.2923    40.188616    64909.632   -227.07889   0.81970867   -10212.144 
  207000       413970    306.79296   -8751.6282   -10579.697    1828.0686   -9099.8046   -1479.8921    40.199531    64962.536    254.42478   0.81904111   -8510.5831 
  208000       415970    304.48382   -6292.0127   -8106.3219    1814.3092   -6616.9407   -1489.3812    40.096706    64465.311    1258.9975   0.82535843   -5108.3531 
  209000       417970    310.19579   -8195.6053    -10043.95    1848.3448   -8536.3331    -1507.617    40.174128    64839.459    191.73475    0.8205958   -8014.2977 
  210000       419970    292.26233    -8401.779   -10143.265    1741.4858    -8654.991   -1488.2739    40.157091    64757.003    267.73459   0.82164069   -8148.9266 
  211000       421970    296.80623   -7228.1377    -8996.699    1768.5613   -7457.2689   -1539.4301    40.135368    64651.966    468.20764   0.82297556   -6786.6729 
  212000       423970    296.81812   -6837.4791   -8606.1113    1768.6321   -7074.1939   -1531.9173    40.099977    64481.091    715.66693   0.82515645   -6164.4727 
  213000       425970    298.74028   -4880.2014    -6660.287    1780.0856   -5173.4887   -1486.7983    40.070833    64340.601    1811.2872   0.82695821   -3180.5951 
  214000       427970    300.64709   -9278.4644   -11069.912    1791.4476   -9536.4349   -1533.4771     40.14287    64688.229   -125.26693   0.82251422   -9396.6427 
  215000       429970    295.24346   -9153.2456   -10912.495    1759.2493   -9429.6086   -1482.8863    40.126278    64608.052     119.2132   0.82353494   -9040.9179 
  216000       431970    299.92731   -6369.9245   -8157.0831    1787.1586   -6638.1034   -1518.9798    40.088908    64427.706    1002.9482   0.82584017   -5427.5423 
  217000       433970    299.19961   -8592.9533   -10375.776    1782.8226   -8815.8362   -1559.9396    40.057995    64278.779   -56.997288   0.82775356   -8646.3848 
  218000       435970    292.39132   -8784.4558    -10526.71    1742.2544   -8953.8007   -1572.9095    40.105528     64507.87   -242.84669    0.8248139   -9012.9214 
  219000       437970    298.68163   -6882.1581   -8661.8942    1779.7361    -7094.199   -1567.6952     40.06091    64292.812    621.05421   0.82757288   -6299.8299 
  220000       439970    293.45117   -5839.1741   -7587.7438    1748.5697   -6015.1523   -1572.5915    40.031348    64150.587    979.87221   0.82940765   -4922.4346 
  221000       441970    301.17575   -8239.4403   -10034.038    1794.5977   -8507.4385   -1526.5995     40.07156    64344.101     299.6634   0.82691322   -7958.2384 
  222000       443970    296.34917   -8221.3553   -9987.1932    1765.8378   -8473.4388   -1513.7543    40.035641    64171.231    483.68539   0.82914083   -7768.6879 
  223000       445970    295.50896   -10246.308    -12007.14    1760.8313   -10439.121   -1568.0183    40.013244    64063.593    -552.8795   0.83053394   -10762.865 
  224000       447970    297.13135   -7970.9451   -9741.4437    1770.4985   -8220.7623   -1520.6813    40.045642    64219.333    392.74467   0.82851979    -7603.111 
  225000       449970     297.5179   -7130.6158   -8903.4177    1772.8018   -7420.4453   -1482.9724    40.055903    64268.708     1073.668   0.82788327   -6124.2741 
  226000       451970    302.99314   -9008.3769   -10813.804    1805.4268   -9285.8143   -1527.9895    40.062968    64302.724    149.54144   0.82744532   -8868.1386 
  227000       453970    292.93664   -9860.6384   -11606.142    1745.5037   -9997.5167   -1608.6254     40.01611    64077.359   -582.33074   0.83035551   -10404.828 
  228000       455970    302.62579   -9316.3714   -11119.609     1803.238   -9563.3375   -1556.2719    40.004147     64019.91   -39.376822   0.83110064   -9353.1361 
  229000       457970    303.66819   -8995.5892   -10805.038    1809.4492   -9250.3273   -1554.7112    39.983769    63922.124    54.578551   0.83237203    -8944.709 
  230000       459970    293.16877   -10524.605   -12271.492     1746.887   -10739.499    -1531.993    40.031123    64149.507   -439.26524   0.82942162   -10935.562 
  231000       461970    307.82818   -9468.5721   -11302.809    1834.2371    -9793.255   -1509.5542    40.005725    64027.482    236.33891   0.83100235   -9247.8847 
  232000       463970    302.42087   -8617.4739   -10419.491    1802.0169   -8897.7156   -1521.7752    39.984365    63924.982    513.41742   0.83233481    -8138.825 
  233000       465970    303.32174   -9165.4807   -10972.866    1807.3848   -9475.5165    -1497.349    40.004711    64022.616    287.80306   0.83106551   -8896.7577 
  234000       467970    294.60454   -10695.532   -12450.974    1755.4422    -10936.84   -1514.1345    40.010081    64048.399   -284.64089   0.83073097   -10961.409 
  235000       469970    299.29066   -8367.4584   -10150.823    1783.3651   -8610.2961   -1540.5274    40.048733    64234.202    373.02339     0.828328   -8018.0138 
  236000       471970    302.38935    -6466.881   -8268.7101    1801.8291   -6832.4731    -1436.237    40.025156    64120.823    1476.7207   0.82979266   -5085.9457 
  237000       473970    301.90359   -8696.9528   -10495.887    1798.9346   -8958.9456   -1536.9419    39.990228    63953.105    230.32483    0.8319688   -8482.1311 
  238000       475970     295.1001   -7590.0559    -9348.451     1758.395   -7770.0513   -1578.3997    39.997574    63988.355    482.23968   0.83151048   -7140.0277 
  239000       477970    304.32635   -7201.6284   -9014.9993     1813.371   -7431.8972   -1583.1022    40.020711    64099.465    548.31717   0.83006915   -6689.0478 
  240000       479970    301.46105    -9761.513   -11557.811    1796.2977   -10032.216    -1525.595    40.036484    64175.284   -167.75451   0.82908847   -9918.5196 
  241000       481970    303.85666   -7518.6781   -9329.2503    1810.5722   -7760.2321   -1569.0182    40.000883     64004.24     488.3127   0.83130412   -7062.8693 
  242000       483970    301.82767   -9631.9966   -11430.479    1798.4822   -9797.9776   -1632.5012    40.040219    64193.247   -669.86817   0.82885647   -10259.122 
  243000       485970    305.03562   -8815.9061   -10633.503    1817.5972   -9116.2244   -1517.2789    39.990684    63955.292    324.04443   0.83194036   -8513.6626 
  244000       487970    295.22382   -8703.0355   -10462.168    1759.1323   -8951.2812   -1510.8866    40.081388    64391.458    312.56603   0.82630507     -8409.51 
  245000       489970    293.51321   -7284.0062   -9032.9456    1748.9394   -7570.5055   -1462.4401    40.005888    64028.265    1186.2122    0.8309922   -6176.3372 
  246000       491970    299.71934    -9270.954   -11056.873    1785.9195   -9564.1112   -1492.7622     40.07501    64360.722    187.99102   0.82669967    -9094.499 
  247000       493970     299.3335   -9245.2241   -11028.844    1783.6203   -9519.2082   -1509.6362    40.044928    64215.898    90.192856   0.82856411   -9160.7564 
  248000       495970    306.12637    -7096.456   -8920.5526    1824.0966   -7355.3484   -1565.2042    40.073278    64352.381    582.21095   0.82680683   -6550.0432 
  249000       497970     298.7811   -8519.7545   -10300.083    1780.3288   -8677.0411   -1623.0422    40.113788    64547.737   -299.34501   0.82430447   -8801.5467 
  250000       499970    304.63742   -8551.0425   -10366.267    1815.2245   -8827.0986   -1539.1685    40.048837    64234.706    178.58707    0.8283215   -8383.7426 
  251000       501970    304.14102   -8325.1431    -10137.41    1812.2666   -8566.4529   -1570.9569    40.069903    64336.122    55.851816   0.82701578   -8272.7386 
  252000       503970    294.70535   -8655.6277   -10411.671    1756.0429   -8861.2871   -1550.3835    40.065735    64316.047    141.17853   0.82727391   -8523.2046 
  253000       505970    307.56772   -10761.744   -12594.429    1832.6851   -11036.653   -1557.7763    40.070506    64339.028    -747.6798   0.82697843   -11463.306 
  254000       507970    302.23732   -9011.7315   -10812.655    1800.9232   -9226.6919   -1585.9628    40.096535    64464.486   -284.59672     0.825369   -9279.2946 
  255000       509970    291.50572   -8155.9464   -9892.9238    1736.9774   -8376.4945   -1516.4293    40.076529    64368.044     436.5123   0.82660564    -7746.174 
  256000       511970    300.54784   -7402.7275   -9193.5836    1790.8562   -7630.8828   -1562.7009    40.098486    64473.898    470.32098   0.82524851   -6960.4914 
  257000       513970    305.03813   -8157.5613   -9975.1735    1817.6122    -8430.096   -1545.0775     40.02278    64109.406    332.58247   0.82994043   -7846.6066 
  258000       515970    296.55669    -9431.043   -11198.117    1767.0743   -9678.9087   -1519.2087    40.093789    64451.243    6.5396242   0.82553858   -9424.8961 
  259000       517970    304.72037    -6690.208   -8505.9268    1815.7188   -6965.7028   -1540.2239    40.123112     64592.76    746.45691    0.8237299   -5987.0313 
  260000       519970    309.36418    -8356.715   -10200.105    1843.3895   -8703.3121   -1496.7925    40.065783    64316.276     552.9595   0.82727097   -7838.0462 
  261000       521970    310.82069    -10322.37   -12174.439    1852.0684   -10603.729     -1570.71    40.090907    64437.347   -553.85408   0.82571661   -10842.856 
  262000       523970    291.43009    -8722.558   -10459.085    1736.5268   -8904.7371   -1554.3477    40.046961    64225.677     7.266042   0.82843794   -8715.7522 
  263000       525970    311.66972   -9631.5956   -11488.723    1857.1275    -9892.558   -1596.1651     40.04405    64211.675   -480.36979    0.8286186   -10081.443 
  264000       527970    310.36541   -6661.0504    -8510.406    1849.3555   -6910.2074   -1600.1986    39.996284    63982.163    569.35835   0.83159096   -6129.7741 
  265000       529970    298.09465   -9890.5626   -11666.801    1776.2385   -10073.806   -1592.9951    40.078199    64376.091   -635.06765   0.82650232   -10486.802 
  266000       531970     309.9757   -8499.1248   -10346.158    1847.0334   -8823.7631   -1522.3951    40.023556    64113.137    307.83214   0.82989213   -8211.2943 
  267000       533970    295.90294   -5348.3782   -7111.5571    1763.1789   -5544.9393   -1566.6179    40.003499    64016.796    1269.4229   0.83114107   -4163.2205 
  268000       535970    303.00543   -11042.763   -12848.263    1805.5001   -11258.095   -1590.1679    40.006027    64028.934   -899.53386   0.83098351   -11882.745 
  269000       537970    312.40182   -11383.589   -13245.079    1861.4898   -11723.474   -1521.6047    40.070327    64338.166   -708.95259   0.82698951   -12048.804 
  270000       539970    299.93593   -7689.7527   -9476.9627      1787.21   -7904.7585   -1572.2042    40.020519    64098.542    396.76081    0.8300811   -7318.8561 
  271000       541970    307.98065   -5278.7059   -7113.8515    1835.1456   -5474.9916   -1638.8599    40.022268    64106.946    865.10388   0.82997228   -4469.8908 
  272000       543970    298.76345   -8942.1532   -10722.377    1780.2236   -9211.1612   -1511.2156    40.035468    64170.397    307.90799   0.82915161   -8653.9946 
  273000       545970    298.25736   -10797.103   -12574.311     1777.208   -11032.629   -1541.6823    40.057534    64276.562   -655.81816   0.82778211   -11411.872 
  274000       547970    295.17189   -5543.1318   -7301.9546    1758.8228   -5778.7929   -1523.1617    40.031545    64151.538    1270.7394   0.82939537   -4354.2478 
  275000       549970    302.17136   -7075.9371   -8876.4672    1800.5301   -7367.9594   -1508.5078    39.987182    63938.493     982.5581   0.83215893   -6159.7239 
  276000       551970    302.60857    -6156.828   -7959.9634    1803.1353   -6405.0084   -1554.9549      40.0044    64021.123    1025.5653    0.8310849   -5199.2758 
  277000       553970      293.839   -10842.702   -12593.583    1750.8806   -11016.283   -1577.3001    39.997038    63985.781   -721.91444   0.83154393   -11516.369 
  278000       555970    301.73586   -9200.8135   -10998.749    1797.9351   -9428.1075    -1570.641     39.97527    63881.368    13.583074   0.83290308   -9188.1589 
  279000       557970     292.8741   -10218.645   -11963.776    1745.1311   -10333.516   -1630.2597    40.038631    64185.609    -894.8281    0.8289551   -11056.277 
  280000       559970     292.2093    -8037.594   -9778.7638    1741.1698    -8206.672   -1572.0917    39.979551    63901.894    409.43262   0.83263554   -7656.0259 
  281000       561970    294.43491   -6972.8232   -8727.2546    1754.4314   -7203.8428   -1523.4118    39.983309    63919.914    836.79608   0.83240081   -6192.7565 
  282000       563970    309.26323   -7400.7785   -9243.5665     1842.788   -7750.5252   -1493.0413     39.98092    63908.462    938.87646   0.83254998   -6525.7087 
  283000       565970    302.74954   -9546.6095   -11350.585    1803.9753   -9811.7981   -1538.7867    40.022568    64108.389   -198.76669   0.82995359   -9732.4475 
  284000       567970    305.60286   -10135.671   -11956.649    1820.9772   -10410.676   -1545.9727    40.010776    64051.738   -416.11192   0.83068765   -10524.374 
  285000       569970    307.14066   -9262.4559   -11092.596    1830.1404   -9546.8442   -1545.7521    40.008062    64038.706   -25.724291    0.8308567   -9286.4808 
  286000       571970    300.45778   -9249.5877   -11039.907    1790.3196   -9520.1437   -1519.7635    40.032729    64157.226    162.77735   0.82932183   -9097.2822 
  287000       573970    303.19901   -7484.0067   -9290.6602    1806.6535   -7641.7368   -1648.9234    39.983832    63922.423    91.706382   0.83236813   -7398.5141 
  288000       575970    295.40802    -7952.885   -9713.1148    1760.2298   -8150.8032   -1562.3116    39.990944    63956.541    456.87652    0.8319241   -7526.7378 
  289000       577970    305.56344   -6616.4148   -8437.1571    1820.7423   -6838.6493   -1598.5078    39.993567    63969.125    703.23913   0.83176045   -5960.3461 
  290000       579970    299.87001   -10304.971   -12091.788    1786.8172   -10594.926   -1496.8627    39.973843    63874.526   -28.342945   0.83299229   -10331.374 
  291000       581970    302.90118    -7971.609   -9776.4879    1804.8789   -8174.3878      -1602.1    39.948874    63754.909    269.94459   0.83455515   -7720.6145 
  292000       583970    288.41008   -8246.9082   -9965.4399    1718.5316   -8429.6696   -1535.7703    40.008746    64041.992    421.76117   0.83081407   -7852.9889 
  293000       585970    303.73838   -10715.384   -12525.252    1809.8675   -10950.472   -1574.7794    40.096335    64463.523   -964.78595   0.82538133   -11622.413 
  294000       587970    289.60561    -9451.416   -11177.071    1725.6553   -9626.4459   -1550.6254    39.927799    63654.061   -62.215236   0.83587736   -9509.1722 
  295000       589970    304.16174   -6409.3995   -8221.7896    1812.3901   -6629.1564   -1592.6332     39.90792    63559.032    959.54188    0.8371271   -5519.9586 
  296000       591970    304.47011   -10084.705   -11898.933    1814.2275   -10333.484   -1565.4488     39.95638    63790.854   -423.42241   0.83408491   -10478.625 
  297000       593970    294.48047   -9986.6435   -11741.346    1754.7029   -10211.712   -1529.6344    40.048566      64233.4   -331.29614   0.82833835   -10296.994 
  298000       595970    296.62722   -9485.7977   -11253.292    1767.4946    -9698.517   -1554.7753    40.033551    64161.179   -193.64894   0.82927073   -9666.9999 
  299000       597970    300.76208   -6671.3821   -8463.5148    1792.1327   -6957.5999   -1505.9148    39.990287     63953.39    1178.7419   0.83196509   -5571.9759 
  300000       599970    300.05849   -9039.9647   -10827.905    1787.9403   -9320.1931   -1507.7119    39.979659    63902.412    315.57521   0.83262879    -8745.864 
  301000       601970    292.68679   -9494.5028   -11238.518     1744.015   -9671.7936   -1566.7241    39.962145     63818.47    -159.9567   0.83372397   -9643.3788 
  302000       603970    297.11583   -8463.1144    -10233.52     1770.406   -8705.1921   -1528.3283    39.900598    63524.055    599.94659   0.83758803    -7907.304 
  303000       605970    296.88223   -6619.0579    -8388.072    1769.0141   -6758.1561   -1629.9159    39.822275    63150.706    907.03729   0.84253987   -5783.6872 
  304000       607970    314.61434   -9721.0823   -11595.756    1874.6734   -9998.5487   -1597.2069    39.908262    63560.668    -312.2292   0.83710556   -10010.508 
  305000       609970    298.19948   -10128.163   -11905.026    1776.8631   -10302.201   -1602.8256    40.010676    64051.257     -643.586    0.8306939   -10729.351 
  306000       611970    299.63524   -9071.8282   -10857.247    1785.4183   -9247.7345   -1609.5121    39.959178    63804.254   -148.70331   0.83390972   -9210.1996 
  307000       613970    297.86797   -9502.7878   -11277.676    1774.8878   -9722.7914   -1554.8842    40.019757    64094.882   -205.11732   0.83012849   -9694.5229 
  308000       615970    305.06543   -8076.0042   -9893.7791    1817.7749   -8347.4308   -1546.3483    40.044304    64212.894    299.30389   0.82860287   -7795.7123 
  309000       617970    300.92133   -8209.5689   -10002.651    1793.0817    -8471.139   -1531.5116    40.058847    64282.883    330.89846   0.82770071   -7899.3516 
  310000       619970    309.69559   -7439.2486   -9284.6129    1845.3643   -7689.1094   -1595.5035     39.99847    63992.657    451.76451   0.83145458   -7017.6316 
  311000       621970    305.44572   -7357.8263   -9177.8672    1820.0409   -7567.3145   -1610.5527    39.970023    63856.219    379.75538   0.83323111   -7004.1687 
  312000       623970    300.44585   -7895.4487   -9685.6972    1790.2484   -8167.2222    -1518.475    40.029741    64142.863    551.15506   0.82950754   -7379.8664 
  313000       625970     301.8489   -8186.7508   -9985.3595    1798.6087   -8459.3452   -1526.0143    40.002048    64009.829    460.98254   0.83123153   -7756.4154 
  314000       627970     302.8305   -6863.2539   -8667.7116    1804.4577    -7105.072   -1562.6396    40.005505    64026.426    766.47835   0.83101606   -6147.5473 
  315000       629970    300.70193    -10550.48   -12342.255    1791.7743   -10794.643   -1547.6115    40.000001    64000.006   -503.54553   0.83135912   -11020.477 
  316000       631970    303.10865   -9098.4866   -10904.602    1806.1151   -9334.5591   -1570.0426    39.963145    63823.257   -7.1245164   0.83366143   -9105.1181 
  317000       633970    297.27576   -8870.3821   -10641.741     1771.359   -9138.9631   -1502.7781    39.908767     63563.08    580.62293   0.83707379   -8332.1433 
  318000       635970    295.42488   -7236.4203   -8996.7506    1760.3303   -7434.5992   -1562.1515    39.964049    63827.588    650.05364   0.83360486   -6631.3115 
  319000       637970     297.8889   -9060.7114   -10835.724    1775.0125   -9303.3124   -1532.4115     39.99181    63960.695    258.26405   0.83187008   -8819.8024 
  320000       639970    298.93824   -8634.3575   -10415.623    1781.2651   -8835.2897    -1580.333    40.020286    64097.424    44.059712   0.83009557   -8593.1707 
  321000       641970     294.2553   -9124.8447   -10878.206    1753.3612     -9323.24   -1554.9659    40.022991     64110.42    23.686034   0.82992731   -9102.6986 
  322000       643970    305.11178   -11042.734   -12860.785    1818.0511   -11331.612   -1529.1726     39.95292    63774.283   -474.62596   0.83430163   -11484.175 
  323000       645970    298.44107   -6213.5341   -7991.8368    1778.3027   -6452.7843   -1539.0525    39.997127    63986.209    1157.5365   0.83153838   -5133.3521 
  324000       647970    295.41934   -7442.9044   -9203.2017    1760.2973   -7619.5873   -1583.6144    39.997263    63986.863    475.34424   0.83152987   -6999.3213 
  325000       649970    305.15359   -11691.544   -13509.844    1818.3002     -11915.8   -1594.0445    39.976144    63885.559   -1205.9201   0.83284844   -12815.106 
  326000       651970    299.53811   -6699.2984   -8484.1379    1784.8396   -6938.4107   -1545.7272     39.95266    63773.036     1063.878   0.83431794   -5709.8234 
  327000       653970     294.5268   -6247.7966   -8002.7756     1754.979   -6429.4261   -1573.3495    39.928234    63656.142    1058.3606   0.83585003   -5265.2575 
  328000       655970    302.06991   -10247.674     -12047.6    1799.9256   -10502.245   -1545.3547    39.907718     63558.07   -5.7497438   0.83713977   -10253.004 
  329000       657970    297.72359   -9198.0051   -10972.033    1774.0275   -9428.9636    -1543.069    39.895386    63499.167    262.57838   0.83791632   -8954.8391 
  330000       659970    306.03914   -12005.288   -13828.865    1823.5768   -12319.624   -1509.2407    40.013578    64065.198    -797.9644   0.83051314   -12750.846 
  331000       661970    297.34686   -7574.7518   -9346.5345    1771.7827   -7747.9356   -1598.5988      39.9962     63981.76    406.66605   0.83159619   -7195.2883 
  332000       663970     303.1879   -7333.2917    -9139.879    1806.5873   -7580.4792   -1559.3998    39.994905    63975.548    741.98606   0.83167694   -6641.0055 
  333000       665970    292.39431   -9006.8981    -10749.17    1742.2722    -9145.517   -1603.6533    40.009459    64045.414   -236.19709   0.83076968   -9227.5149 
  334000       667970    291.24249   -9739.4994   -11474.908    1735.4089   -9968.8781   -1506.0302    39.970637    63859.163    250.93293   0.83319269   -9505.8005 
  335000       669970    299.44555   -7126.5545   -8910.8425     1784.288   -7340.6798   -1570.1628    39.961033    63813.141     763.0648    0.8337936   -6416.4089 
  336000       671970    303.74172   -10246.499   -12056.386    1809.8874   -10468.996   -1587.3897     40.05406     64259.84   -586.63844   0.82799752   -10796.275 
  337000       673970    300.37993   -7066.3481   -8856.2037    1789.8556   -7359.8562   -1496.3475    40.075534     64363.25    957.65491   0.82666721   -6167.4243 
  338000       675970    300.75082    -7383.847   -9175.9127    1792.0657   -7597.8069   -1578.1057    39.964609    63830.272    689.69509   0.83356982   -6741.8105 
  339000       677970     297.5574   -6933.2459   -8706.2831    1773.0372   -7183.5888   -1522.6944    40.082927    64398.875    898.06804    0.8262099    -6089.788 
  340000       679970    314.74986   -7516.7935   -9392.2744    1875.4809    -7834.804   -1557.4704    39.958604    63801.506    624.75771   0.83394565   -6935.4692 
  341000       681970    305.46024   -10511.059   -12331.186    1820.1274   -10769.623   -1561.5634    39.879616    63423.895   -318.86159   0.83891076   -10805.997 
  342000       683970    296.70923   -8003.8476   -9771.8309    1767.9833   -8279.3512   -1492.4797    39.940392    63714.309    859.61126   0.83508695   -7205.0901 
  343000       685970    303.94304   -8787.1041   -10598.191    1811.0869    -9092.009   -1506.1821    39.991693    63960.135    386.25161   0.83187736   -8426.8113 
  344000       687970    310.89382   -9014.6184   -10867.122    1852.5041   -9393.8218   -1473.3007    40.009149    64043.925    529.81072   0.83078899   -8519.7672 
  345000       689970    304.91904   -9656.0672    -11472.97    1816.9026   -9912.1267   -1560.8431    40.048482    64232.994   -356.82993   0.82834358   -9990.3356 
  346000       691970    308.07237   -8721.4807   -10557.173    1835.6921   -8991.1478    -1566.025    39.984871    63927.407    21.228931   0.83230324   -8701.6886 
  347000       693970    286.73968   -9197.1379   -10905.716    1708.5783   -9334.4377   -1571.2786    39.990785    63955.777   -112.77946   0.83193404   -9302.3306 
  348000       695970    294.65006   -10181.613   -11937.326    1755.7134    -10407.56   -1529.7663    39.991241    63957.966   -123.60659   0.83190557   -10296.908 
  349000       697970    304.65544   -8729.6307   -10544.963    1815.3319   -8990.3553   -1554.6073    40.018508     64088.88    140.17279   0.83020624   -8598.6154 
  350000       699970    305.55318   -9907.9135   -11728.595    1820.6812   -10133.985   -1594.6094    40.032724    64157.202    -529.2302   0.82932214   -10403.097 
  351000       701970    297.27326   -9569.3435   -11340.688    1771.3441   -9829.7448   -1510.9428    40.054501    64261.961    11.200934   0.82797019    -9558.846 
  352000       703970    309.67273   -9583.6715     -11428.9    1845.2281   -9888.9498   -1539.9497    40.026794    64128.698   -45.256819   0.82969076    -9625.998 
  353000       705970    303.83731   -9246.4172   -11056.874     1810.457   -9561.7899   -1495.0843    40.095073    64457.437    200.63346   0.82545926   -9057.8126 
  354000       707970    291.75627   -9783.4693    -11521.94    1738.4704   -10004.304   -1517.6352    40.094376    64454.074   -192.26684   0.82550233   -9964.1995 
  355000       709970    301.94077   -9392.5042    -11191.66    1799.1561   -9645.2082   -1546.4521    40.051556     64247.79   -50.193983   0.82815281   -9439.5353 
  356000       711970    296.72196   -6735.2206   -8503.2797    1768.0591   -7004.7146   -1498.5651    40.036685    64176.252    1130.9638   0.82907597   -5676.7009 
  357000       713970    304.97368   -8887.6587   -10704.887    1817.2281    -9226.031   -1478.8558    40.029807     64143.18    417.91201   0.82950343   -8496.7177 
  358000       715970    301.01684   -8741.8567   -10535.507    1793.6508   -8975.8025    -1559.705    40.134963    64650.013   -160.12475   0.82300043    -8892.831 
  359000       717970    292.08567   -10520.227    -12260.66    1740.4331   -10746.716   -1513.9434    40.149236    64719.009   -501.33932   0.82212303   -10993.421 
  360000       719970    290.66466   -6109.2236   -7841.1895    1731.9659    -6229.777   -1611.4126     40.04761    64228.801    757.95628   0.82839766   -5399.2375 
  361000       721970    311.52471   -9752.8404   -11609.104    1856.2634   -10099.974   -1509.1301    40.163765    64789.296   -340.00857   0.82123115    -10074.11 
  362000       723970    300.01926   -6846.0513   -8633.7578    1787.7065   -7095.0531   -1538.7046    40.029784     64143.07    900.25679   0.82950486   -6003.8963 
  363000       725970    304.72314   -7487.4585   -9303.1937    1815.7353    -7833.945   -1469.2488    40.050258     64241.54    918.08199   0.82823338   -6627.3102 
  364000       727970    300.30981   -9591.4329   -11380.871    1789.4378   -9770.5692   -1610.3015    40.149755    64721.517   -788.52776   0.82209118   -10335.722 
  365000       729970    292.95329   -8580.2715   -10325.874     1745.603   -8791.7382   -1534.1363    40.021693    64104.183    299.31712   0.83000805   -8300.4418 
  366000       731970    305.51444   -9646.2543   -11466.705    1820.4503   -9959.4541   -1507.2505    40.102737    64494.405   -112.68763   0.82498611   -9752.2465 
  367000       733970    297.04518   -10975.293   -12745.278    1769.9851   -11251.612   -1493.6661    40.127245    64612.719   -551.26151   0.82347545   -11494.752 
  368000       735970    294.40492   -8332.8094   -10087.062    1754.2527   -8672.7546   -1414.3074    40.066009    64317.366    890.32436   0.82725695   -7497.6826 
  369000       737970    296.03616   -8668.7013   -10432.674    1763.9727   -8873.4788   -1559.1952     40.07692    64369.925   -104.35026   0.82658149   -8766.6621 
  370000       739970    296.00021   -6318.4286   -8082.1871    1763.7585   -6648.7915   -1433.3955    40.034665    64166.538     1588.747   0.82920148   -4831.6742 
  371000       741970    312.15165   -8276.0899   -10136.089    1859.9991   -8553.4587   -1582.6303    39.993309    63967.891      187.746    0.8317765   -8100.9406 
  372000       743970    302.93029   -9766.7818   -11571.834    1805.0523   -10097.209   -1474.6254    40.104014    64500.569   -11.783989   0.82490727   -9777.8667 
  373000       745970    291.08452    -7299.224   -9033.6917    1734.4677   -7481.0016     -1552.69    40.120042    64577.933    385.62858   0.82391903   -6936.0379 
  374000       747970    296.19275   -8335.5406   -10100.446    1764.9057   -8561.6899   -1538.7564    40.073501    64353.454    209.49275   0.82679305   -8138.9255 
  375000       749970     303.3402   -6537.2075   -8344.7023    1807.4948   -6841.5032   -1503.1991     40.05925     64284.82    1066.3094   0.82767577   -5537.5124 
  376000       751970    301.50071   -8204.7834   -10001.317     1796.534   -8427.8756   -1573.4417    40.026318    64126.409    151.33573   0.82972037   -8063.2515 
  377000       753970    305.57017   -8616.3788   -10437.161    1820.7824   -8913.9771   -1523.1842     39.99234    63963.241    313.10556   0.83183696   -8324.3019 
  378000       755970    301.94323   -8584.9323   -10384.103    1799.1708   -8837.6857   -1546.4175    40.031048    64149.147    215.06987   0.82942627   -8383.7238 
  379000       757970    298.76756   -7753.0261   -9533.2742    1780.2481   -7991.8275   -1541.4467    40.048057    64230.951    397.44976   0.82836993    -7380.718 
  380000       759970    292.31789   -8309.8357   -10051.653    1741.8168   -8484.3366    -1567.316    40.018039    64086.626    116.25516   0.83023545   -8201.1793 
  381000       761970    300.79588   -8953.2943   -10745.628    1792.3342   -9222.5788   -1523.0497     40.01849    64088.795    162.30197   0.83020734   -8801.5956 
  382000       763970    308.45681   -7688.1793   -9526.1622    1837.9829    -7955.052   -1571.1102    39.956951    63793.586      473.441   0.83404917   -7247.7068 
  383000       765970    300.37379   -9648.1818   -11438.001    1789.8191   -9878.9121   -1559.0887    40.011657    64055.972   -188.41125   0.83063275   -9824.1938 
  384000       767970    306.13117   -8866.6582   -10690.783    1824.1252   -9239.1774   -1451.6061    40.018348    64088.111    507.17137    0.8302162   -8392.6258 
  385000       769970    296.25834    -8450.815   -10216.112    1765.2966   -8681.3415   -1534.7701    39.996834    63984.805    200.44526   0.83155661   -8263.7689 
  386000       771970    299.27418   -9473.8315   -11257.098    1783.2669   -9717.9702   -1539.1282    40.042242    64202.975   -247.15702   0.82873088   -9705.2532 
  387000       773970    298.87615   -10276.658   -12057.553    1780.8952     -10582.7   -1474.8529    39.990381     63953.84     13.93085   0.83195924   -10263.664 
  388000       775970    295.02969   -7288.9364   -9046.9119    1757.9755   -7500.8263   -1546.0856    40.012239    64058.764     555.8072   0.83059655   -6769.6839 
  389000       777970    297.17949   -8321.5378   -10092.323    1770.7854   -8537.6049   -1554.7183    40.119415    64574.904    87.144443   0.82395768   -8239.4688 
  390000       779970    298.08488   -7979.4053   -9755.5855    1776.1803   -8294.0918   -1461.4938    40.120013    64577.792    720.54795   0.82392083   -7300.7926 
  391000       781970     298.9357   -9611.5845   -11392.834      1781.25    -9833.069   -1559.7655    40.070052    64336.841   -268.81217   0.82700654   -9863.8074 
  392000       783970    290.75864   -9442.7296   -11175.255    1732.5259   -9701.7738   -1473.4817    40.094008    64452.301    55.003683   0.82552504   -9391.0277 
  393000       785970    297.14943   -8741.7608   -10512.367    1770.6063   -9011.0684   -1501.2987    40.031997    64153.711    347.07657   0.82936727   -8417.0304 
  394000       787970     307.2224   -8962.4765   -10793.104    1830.6275   -9275.1335   -1517.9705    40.053871    64258.929    155.05949   0.82800926   -8817.1624 
  395000       789970    298.50084   -8099.9796   -9878.6384    1778.6588   -8332.5026   -1546.1358    40.104427     64502.56    204.81339    0.8248818   -7907.3109 
  396000       791970    297.19976   -9137.3973   -10908.303    1770.9062    -9359.384   -1548.9195    40.079603    64382.857    -112.3811   0.82641546   -9242.9185 
  397000       793970    301.71255   -9455.8843   -11253.681    1797.7963    -9712.775   -1540.9056    40.048069    64231.007   -232.46183   0.82836921   -9673.6414 
  398000       795970    290.41176   -7338.5705   -9069.0294    1730.4589   -7506.4613   -1562.5682    40.034541    64165.942    418.40628   0.82920918   -6947.0282 
  399000       797970    302.58008   -8516.2944    -10319.26    1802.9656    -8795.376   -1523.8839    40.080693    64388.109    210.58564   0.82634805   -8318.5472 
  400000       799970     296.8753   -8390.7458   -10159.719    1768.9728   -8600.9938   -1558.7248    40.124205    64598.035   -10.535148   0.82366264   -8400.6709 
  401000       801970    299.20036   -9515.9931    -11298.82     1782.827   -9730.2369   -1568.5833    40.087642    64421.605   -391.46739   0.82591838   -9883.7858 
  402000       803970     297.7763   -8882.4658   -10656.807    1774.3416   -9178.3159   -1478.4914    40.105073    64505.675    233.35237   0.82484197   -8662.9397 
  403000       805970    297.92477   -9210.7661   -10985.992    1775.2263   -9383.9465   -1602.0459    40.059211    64284.632    -346.6608   0.82767819   -9535.7694 
  404000       807970    310.68651   -8821.9701   -10673.239    1851.2688   -9207.6074   -1465.6315    40.078064    64375.438    476.40637    0.8265107   -8374.6961 
  405000       809970    310.11324   -8460.9281   -10308.781    1847.8529   -8761.6146   -1547.1664    39.998267    63991.681    224.65653   0.83146726   -8251.2667 
  406000       811970    303.78512   -10851.432   -12661.578    1810.1459   -11126.836   -1534.7422    40.057702    64277.368   -744.71196   0.82777174   -11549.539 
  407000       813970    294.92137   -6642.3534   -8399.6835      1757.33   -6864.7888   -1534.8947    40.020472    64098.314    904.93341   0.83008404   -5796.4143 
  408000       815970    299.83249   -7997.1553    -9783.749    1786.5937   -8217.4167   -1566.3322    40.010365    64049.767    356.98346   0.83071322    -7663.697 
  409000       817970    302.45804   -7470.3918   -9272.6302    1802.2383   -7723.1176   -1549.5126    40.042509    64204.258    579.24865   0.82871432   -6928.0105 
  410000       819970    294.72762   -7953.4955   -9709.6711    1756.1756   -8075.0476   -1634.6235    40.018196     64087.38   -66.920132   0.83022567   -8016.0423 
  411000       821970    307.01324   -7924.6899   -9754.0711    1829.3811    -8194.948   -1559.1231    40.039418    64189.395    359.62133   0.82890622   -7588.0353 
  412000       823970    298.32919   -5983.3136   -7760.9496     1777.636   -6144.5878   -1616.3618    40.034947     64167.89    785.49671   0.82918401   -5248.2279 
  413000       825970    321.77835   -9336.5462   -11253.907    1917.3611   -9677.8257   -1576.0816    40.035201    64169.111   -110.75085   0.82916822   -9440.1913 
  414000       827970     299.1139   -8962.2954   -10744.607    1782.3119   -9171.5468   -1573.0604    40.074367    64357.625   -243.20011   0.82673946   -9190.5606 
  415000       829970    295.16601   -6817.0587   -8575.8464    1758.7878   -7076.7859   -1499.0606    40.032321    64155.268    1135.3201   0.82934714   -5754.8092 
  416000       831970     304.4473   -8226.2406   -10040.332    1814.0916   -8432.9962    -1607.336    40.075876    64364.894   -104.49563   0.82664609   -8324.3302 
  417000       833970    307.22387   -6776.8098    -8607.446    1830.6362   -6990.6902   -1616.7558    40.044744    64215.012    462.65352   0.82857554   -6343.5301 
  418000       835970    299.65279    -8806.909   -10592.432    1785.5229   -9006.5543   -1585.8777    40.085437    64410.975   -215.18861   0.82605469   -9009.0503 
  419000       837970     301.7197   -10187.552   -11985.391    1797.8388   -10431.634   -1553.7569    40.100447    64483.359   -542.38778   0.82512743   -10697.627 
  420000       839970    304.47554   -8433.5753   -10247.835    1814.2599   -8707.2167   -1540.6186    40.041929     64201.47    146.77738   0.82875031   -8296.1458 
  421000       841970     305.6184   -11650.565   -13471.635    1821.0698   -11992.199   -1479.4359    40.110151    64530.184     -620.111    0.8245287   -12234.155 
  422000       843970    295.94382   -8115.7475     -9879.17    1763.4225   -8320.3733   -1558.7966    39.994396    63973.104     385.5446   0.83170872   -7756.0413 
  423000       845970    300.82829   -9351.0286   -11143.556    1792.5273   -9558.3986   -1585.1573    40.015304     64073.49   -171.58261   0.83040565   -9511.3633 
  424000       847970    294.26415   -9296.0441   -11049.458    1753.4139   -9570.8155   -1478.6424    40.065383    64314.351    268.25526   0.82729574   -9044.4317 
  425000       849970    298.46555   -10090.102   -11868.551    1778.4485   -10346.824   -1521.7271    39.987079    63937.998   -152.47426   0.83216538    -10232.28 
  426000       851970    294.41775   -10576.521    -12330.85    1754.3292   -10846.942   -1483.9082    40.002952    64014.168    -44.03906   0.83117518   -10617.635 
  427000       853970    298.39934   -10161.832   -11939.886     1778.054    -10404.25   -1535.6355    40.010851    64052.097   -302.25783     0.830683   -10444.181 
  428000       855970    302.92388   -6888.5603   -8693.5744    1805.0141   -7169.6342   -1523.9402    40.016707    64080.229    765.30512   0.83031832   -6173.3486 
  429000       857970    300.35644   -9928.2304   -11717.946    1789.7157   -10153.942   -1564.0039    40.079093      64380.4   -535.39386     0.826447   -10430.924 
  430000       859970    309.52326   -11733.614   -13577.951    1844.3375   -12068.977   -1508.9744    40.035712     64171.57   -743.21577   0.82913645   -12429.172 
  431000       861970     307.2038   -9635.1531    -11465.67    1830.5166   -9960.6423   -1505.0274    40.038966    64187.221   -120.66147   0.82893429   -9748.1048 
  432000       863970      292.852   -7706.2526   -9451.2521    1744.9994    -7945.519    -1505.733    39.948293    63752.126    888.66193   0.83459158   -6880.0109 
  433000       865970    299.91657   -8875.0953    -10662.19    1787.0946   -9194.1466   -1468.0433    40.017429    64083.695    486.78104   0.83027341   -8420.1522 
  434000       867970    306.42644   -9139.6884   -10965.573    1825.8846   -9464.5921    -1500.981    40.044831    64215.428    215.15407   0.82857017   -8938.1932 
  435000       869970    303.64628    -10180.45   -11989.769    1809.3186   -10454.952   -1534.8175     40.02377    64114.164   -373.43673   0.82987885   -10529.628 
  436000       871970    294.43557   -8309.2913   -10063.727    1754.4354   -8545.5297   -1518.1969    39.985625    63931.027    438.21487   0.83225612   -7900.7136 
  437000       873970    298.37097   -9043.6925   -10821.577     1777.885   -9296.3983   -1525.1792     40.00022    64001.056    78.136942   0.83134547   -8970.7603 
  438000       875970     302.9639   -9669.6111   -11474.864    1805.2526   -9910.5037     -1564.36    40.040931     64196.67   -337.10996   0.82881227   -9985.2278 
  439000       877970    294.37972   -10672.701   -12426.804    1754.1026   -10894.293   -1532.5105    40.006297    64030.232    -487.9829   0.83096666   -11128.387 
  440000       879970    302.58649   -10020.317   -11823.321    1803.0037   -10261.561   -1561.7594    40.070993    64341.374   -557.14055   0.82694828   -10543.111 
  441000       881970    309.14521   -9896.5529   -11738.638    1842.0848   -10226.348   -1512.2894    40.082768    64398.108   -221.68225   0.82621974   -10104.752 
  442000       883970    299.54834   -11745.764   -13530.664    1784.9005   -12055.578   -1475.0858    40.089933    64432.652   -732.85453   0.82577679   -12434.415 
  443000       885970    308.41273   -10059.015   -11896.735    1837.7202   -10420.696   -1476.0389    40.036239    64174.107   -27.080885   0.82910368    -10084.36 
  444000       887970    306.87283   -9088.4121   -10916.957    1828.5445   -9391.7136   -1525.2431    40.069882    64336.019    113.11225   0.82701711   -8982.2817 
  445000       889970    294.57208   -10357.866   -12113.115    1755.2487   -10584.288   -1528.8271    40.016517    64079.316   -378.97188   0.83033015   -10712.027 
  446000       891970     302.2165   -10535.149   -12335.948    1800.7991   -10807.364   -1528.5837    40.050961    64244.924   -535.08974   0.82818976   -11036.499 
  447000       893970     296.8797   -11281.674   -13050.673     1768.999   -11473.786   -1576.8873    40.042196    64202.752   -919.51405   0.82873376   -12142.644 
  448000       895970    300.71782   -7913.3498   -9705.2189     1791.869   -8163.7593   -1541.4596    40.007037    64033.784    413.87301   0.83092057   -7526.8474 
  449000       897970    300.02772   -8450.5192   -10238.276     1787.757   -8806.9694   -1431.3068    39.970158    63856.865    960.87066   0.83322268    -7555.673 
  450000       899970    297.06378   -9940.8416   -11710.938    1770.0959   -10212.852   -1498.0852    40.023082    64110.856   -155.31223   0.82992166   -10086.057 
  451000       901970    303.48592   -9003.4909   -10811.854    1808.3631   -9279.3099   -1532.5441    40.086215    64414.724   -131.44397   0.82600662   -9126.9723 
  452000       903970    290.72169   -8617.5322   -10349.838    1732.3057   -8842.7489   -1507.0889    39.982614    63916.581    341.41485   0.83244421   -8299.2797 
  453000       905970    299.58255   -9931.4542   -11716.559    1785.1044   -10256.005   -1460.5539    39.970046    63856.328    318.33243   0.83322968   -9634.9979 
  454000       907970    311.38169   -8270.1607   -10125.572    1855.4112   -8627.8309   -1497.7409    39.976007    63884.905    568.46266   0.83285697   -7740.5264 
  455000       909970    303.90946   -6344.0573   -8154.9442    1810.8868   -6632.8311   -1522.1131    40.016393    64078.719    1092.7245   0.83033789   -5322.8818 
  456000       911970    295.96565    -8357.046   -10120.599    1763.5525   -8610.9601   -1509.6384    39.962019    63817.865    625.31269   0.83373187   -7775.0561 
  457000       913970    299.39701   -9560.0922   -11344.091    1783.9988   -9834.5893   -1509.5017    39.988681    63945.685    85.038326   0.83206533    -9480.787 
  458000       915970    290.74043   -6042.4401   -7774.8574    1732.4173   -6198.9391   -1575.9183    39.929201    63660.768    1150.3883   0.83578929   -4974.3885 
  459000       917970    302.92471   -11011.459   -12816.479    1805.0191    -11303.28   -1513.1982    40.029526     64141.83   -544.93085    0.8295209   -11521.211 
  460000       919970    296.84762   -7594.3826   -9363.1904    1768.8079   -7851.6827   -1511.5077    39.960171    63809.009    798.87422   0.83384758    -6850.959 
  461000       921970    301.77335   -11909.352    -13707.51    1798.1585   -12110.955    -1596.555    39.944563    63734.272   -1180.3237   0.83482538   -13006.462 
  462000       923970    302.28879   -10127.995   -11929.225    1801.2299   -10406.823   -1522.4023    39.983715    63921.863    -200.3156   0.83237543   -10314.736 
  463000       925970    306.73427   -6691.7703   -8519.4892    1827.7189   -7040.2347   -1479.2545    39.946772    63744.843         1303   0.83468694   -5480.4323 
  464000       927970    294.81899   -8732.5095    -10489.23      1756.72   -8982.5796   -1506.6499     40.00953    64045.754    363.46396   0.83076527    -8393.019 
  465000       929970    297.53017   -13331.114   -15103.989    1772.8749    -13554.83   -1549.1584    40.059066    64283.935   -1523.3524   0.82768717    -14759.28 
  466000       931970    310.31707   -9639.4143   -11488.482    1849.0675   -9949.6401   -1538.8416    40.039194    64188.314    -201.1839   0.82892017   -9827.7467 
  467000       933970    305.11139   -9794.8527   -11612.901    1818.0487   -10083.992   -1528.9096    39.997687    63988.898   -135.32325   0.83150343    -9921.138 
  468000       935970    301.53713   -9380.2722   -11177.023     1796.751   -9655.5322    -1521.491    40.037139     64178.43   -27.916836   0.82904782   -9406.4017 
  469000       937970    300.95846   -7365.8437   -9159.1466    1793.3029   -7664.0388   -1495.1078    40.013636    64065.473    855.77286   0.83050956   -6566.2701 
  470000       939970    298.99727   -10734.051   -12515.668    1781.6169   -10976.652   -1539.0158    39.985555    63930.689   -543.80036   0.83226051   -11241.071 
  471000       941970    304.55333   -9311.8079   -11126.531    1814.7234   -9647.7848   -1478.7465    40.020433    64098.128    303.65297   0.83008646   -9027.9515 
  472000       943970    295.82299   -7590.2531   -9352.9556    1762.7025   -7800.5188   -1552.4368    40.006269    64030.095     579.9144   0.83096844   -7048.7213 
  473000       945970     296.7434   -8868.0682   -10636.255    1768.1869   -9099.5117   -1536.7434    39.973475    63872.764    141.28619   0.83301528   -8736.4575 
  474000       947970    298.31602   -8200.0204    -9977.578    1777.5575   -8434.0003   -1543.5777    39.976023     63884.98    393.31913   0.83285598   -7833.5662 
  475000       949970     301.9679     -10100.9   -11900.218    1799.3178    -10311.84   -1588.3775     39.97791    63894.027   -576.86279   0.83273806   -10638.437 
  476000       951970    300.03285   -6365.6758   -8153.4634    1787.7876   -6604.9454    -1548.518     39.97606    63885.156    1123.0881   0.83285369   -5319.2953 
  477000       953970    294.85876   -9626.2683   -11383.225     1756.957   -9846.0618   -1537.1634    39.995515    63978.473   -142.77128   0.83163892   -9759.4825 
  478000       955970    308.59971   -9907.7106   -11746.545    1838.8344   -10200.491   -1546.0539     39.97555    63882.713    -246.6296   0.83288554   -10137.486 
  479000       957970    305.50492   -10217.481   -12037.875    1820.3936   -10521.448   -1516.4271    39.977644    63892.749   -198.15143   0.83275472   -10402.121 
  480000       959970    304.71311   -8149.1507   -9964.8262    1815.6755   -8455.2383   -1509.5879    39.895147    63498.024    808.84357    0.8379314   -7400.1182 
  481000       961970    295.23698   -8367.3646   -10126.575    1759.2107   -8579.3725   -1547.2027    39.929048    63660.036    385.31936    0.8357989   -8009.6278 
  482000       963970    297.53955   -11157.217   -12930.148    1772.9309   -11330.417   -1599.7313    40.001824    64008.758   -967.18122   0.83124544   -12060.083 
  483000       965970     308.0882   -9398.4663   -11234.253    1835.7864   -9703.9614   -1530.2913    39.992879    63965.824   -41.826291   0.83180337    -9437.485 
  484000       967970    289.91365   -8339.1914   -10066.682    1727.4908   -8524.1193   -1542.5629    39.963518    63825.046    411.44241   0.83363807   -7956.2114 
  485000       969970    295.22286   -10553.398   -12312.524    1759.1266   -10719.634   -1592.8903    40.009345    64044.866   -832.60833   0.83077679   -11331.078 
  486000       971970     293.0639    -6565.704   -8311.9661    1746.2621   -6777.5439   -1534.4222    39.965035    63832.316    1094.6892   0.83354313   -5546.6262 
  487000       973970    307.82152   -7565.7108   -9399.9082    1834.1974   -7892.2741   -1507.6341    39.907294    63556.041    1030.5477    0.8371665   -6610.4964 
  488000       975970    306.75804   -8937.3775   -10765.238    1827.8605   -9239.8138   -1525.4242    39.950156    63761.047    264.52071   0.83447482   -8691.4024 
  489000       977970    297.02506   -9948.7637   -11718.629    1769.8652   -10165.383   -1553.2463    39.964105    63827.859   -283.52226   0.83360133   -10212.684 
  490000       979970    306.51415   -8155.9428     -9982.35    1826.4072   -8416.8778   -1565.4722    39.919686    63615.267    382.79268    0.8363871   -7800.8017 
  491000       981970    302.90395   -10235.319   -12040.214    1804.8954   -10538.717   -1501.4972     39.95161     63768.01   -153.18591    0.8343837   -10377.781 
  492000       983970    301.86256    -8096.423   -9895.1132    1798.6901   -8292.3562    -1602.757    39.953165    63775.455    192.47077   0.83428629    -7917.406 
  493000       985970    298.25669   -10974.862   -12752.066     1777.204   -11163.448   -1588.6182    39.919364    63613.725   -801.11801   0.83640737   -11718.092 
  494000       987970    307.93428   -7097.4789   -8932.3483    1834.8693   -7349.0656   -1583.2826    39.939425     63709.68    606.26642   0.83514762   -6534.1724 
  495000       989970    303.91662   -8459.6661   -10270.596    1810.9295   -8751.5127    -1519.083    39.917713    63605.835     515.0136   0.83651112   -7981.9262 
  496000       991970    294.06428   -10372.902   -12125.125     1752.223   -10577.363   -1547.7613    39.988802    63946.266   -452.73979   0.83205778   -10795.123 
  497000       993970    293.42569   -8132.0125   -9880.4304    1748.4179   -8344.0311   -1536.3993     39.93623     63694.39    521.64272   0.83534811   -7647.4495 
  498000       995970    296.19551   -9563.9307   -11328.853    1764.9222   -9799.7854   -1529.0675    39.956759    63792.667    47.931331    0.8340612   -9519.3378 
  499000       997970    294.03652   -8364.0683   -10116.126    1752.0576   -8589.9961   -1526.1298     39.94076    63716.071    544.70882   0.83506386   -7857.9066 
  500000       999970    310.09207   -9582.6151   -11430.342    1847.7268   -9932.2577   -1498.0842    40.088125    64423.934   -140.99343   0.82588853   -9715.0864 
  501000      1001970    296.94532   -11819.495   -13588.885      1769.39   -12087.598    -1501.287    40.011496    64055.199   -710.96975   0.83064278   -12483.668 
  502000      1003970    301.87566   -9436.0195   -11234.788    1798.7681    -9718.613   -1516.1746    40.022741    64109.219    121.68075   0.82994285    -9322.252 
  503000      1005970    300.22808     -6732.44   -8521.3909    1788.9508   -7011.3751   -1510.0157    39.968676    63849.764    1155.1313   0.83331534   -5656.8011 
  504000      1007970    303.31842   -10428.969   -12236.334    1807.3651   -10736.798    -1499.536    40.011402    64054.744   -143.63499   0.83064868   -10563.149 
  505000      1009970     300.7358   -7820.3638   -9612.3399    1791.9762   -8011.2276   -1601.1124    39.984959    63927.831     129.5501   0.83229773   -7699.5814 
  506000      1011970    296.30774   -10741.788   -12507.379    1765.5909   -10986.291   -1521.0878    39.997288    63986.985   -447.56393   0.83152829   -11159.448 
  507000      1013970     308.2585   -8399.2335   -10236.035    1836.8012   -8652.2888   -1583.7459    40.049693    64238.824    52.598364    0.8282684   -8349.9563 
  508000      1015970    296.39346   -10056.891   -11822.993    1766.1017   -10286.915   -1536.0775     40.03882    64186.518   -290.71522   0.82894336   -10329.028 
  509000      1017970    300.11014   -8099.8275   -9888.0756    1788.2481   -8388.9552   -1499.1204    39.919855    63616.072    802.29201    0.8363765   -7355.4809 
  510000      1019970    299.18969   -10482.688   -12265.452    1782.7634   -10680.033   -1585.4182    39.978692    63897.777   -690.17532   0.83268919   -11125.851 
  511000      1021970    297.62786   -7196.9763   -8970.4333     1773.457   -7431.4261   -1539.0072    39.968797    63850.342    811.06589    0.8333078   -6441.7184 
  512000      1023970    294.05865    -9155.367   -10907.556    1752.1894    -9331.007   -1576.5494    39.995953    63980.576   -144.62423   0.83161158   -9290.3146 
  513000      1025970    296.03834   -8693.9711   -10457.957    1763.9857   -8879.8052   -1578.1517    40.032718    64157.174   -49.753145   0.82932251   -8740.5235 
  514000      1027970    299.15777   -6164.9943   -7947.5675    1782.5732    -6376.606   -1570.9615    40.044846    64215.502     859.8939   0.82856922   -5359.6888 
  515000      1029970    300.87146   -7494.0036   -9286.7881    1792.7845   -7738.1393   -1548.6488     40.04045    64194.355    497.67696   0.82884216    -7028.074 
  516000      1031970    295.99909   -9786.4967   -11550.248    1763.7518   -9972.5802   -1577.6683    40.014462    64069.441   -476.35193   0.83045813   -10231.594 
  517000      1033970    302.66205   -7073.1374   -8876.5913     1803.454   -7408.8135   -1467.7779    40.007478    64035.899     1161.389   0.83089312   -5988.5186 
  518000      1035970    305.34762   -9713.4054   -11532.862    1819.4563   -10007.498   -1525.3642    39.954952    63784.015    54.258082   0.83417433   -9662.9332 
  519000      1037970    305.59051   -6602.5421   -8423.4457    1820.9036   -6900.1252   -1523.3205    39.980188     63904.95    992.77778   0.83259573    -5677.285 
  520000      1039970    305.01821   -5111.3609   -6928.8544    1817.4935   -5415.0241   -1513.8303    39.924408    63637.844    1763.7733   0.83609036   -3474.4158 
  521000      1041970    303.71131   -7648.9387   -9458.6449    1809.7062   -7884.2929    -1574.352     39.98622    63933.878    413.98691     0.832219   -7262.9331 
  522000      1043970    307.28985   -8986.0605    -10817.09    1831.0294   -9267.1453   -1549.9446    39.982913    63918.015    140.13676   0.83242554    -8855.428 
  523000      1045970    291.57134    -8963.759   -10701.127    1737.3684   -9135.9592   -1565.1682    39.965394    63834.037    151.07396   0.83352065   -8823.1161 
  524000      1047970    305.43296   -9972.3833   -11792.348    1819.9648   -10246.284    -1546.064    39.995344    63977.652   -246.59851   0.83164959   -10202.472 
  525000      1049970    291.11131   -10477.731   -12212.358    1734.6273   -10680.781   -1531.5774    40.004694    64022.533   -428.02622   0.83106659    -10877.38 
  526000      1051970    299.02792   -10147.488   -11929.288    1781.7995   -10322.962   -1606.3259    39.991063    63957.111   -723.46171   0.83191669   -10822.297 
  527000      1053970    316.30281   -7508.6933   -9393.4276    1884.7343   -7822.7864   -1570.6412    39.944266    63732.851    532.73414     0.834844   -7013.5285 
  528000      1055970    306.64131   -9276.0896   -11103.255     1827.165   -9535.6225   -1567.6321    40.026847     64128.95   -181.37247   0.82968749   -9445.7191 
  529000      1057970    302.82956   -10384.963   -12189.416    1804.4521   -10622.585   -1566.8306    40.018228    64087.532   -646.46038    0.8302237   -10989.178 
  530000      1059970    299.77996   -8372.0416   -10158.322    1786.2807   -8601.0429   -1557.2793    39.951008    63765.127    252.86275   0.83442143   -8136.8921 
  531000      1061970    304.61503   -8565.9527   -10381.044    1815.0911   -8876.7766   -1504.2672     39.98834    63944.047    505.08653   0.83208665     -8094.93 
  532000      1063970    303.25172   -8012.0986   -9819.0662    1806.9676   -8259.1481   -1559.9182    39.928337    63656.632     570.5123   0.83584359    -7482.454 
  533000      1065970    297.29684    -7182.468   -8953.9526    1771.4846   -7421.9147   -1532.0379    40.037745    64181.348    687.53785   0.82901013   -6538.9194 
  534000      1067970    301.20453   -11665.948   -13460.717    1794.7692   -11962.804    -1497.913    39.913026    63583.431   -503.08032   0.83680587   -12132.454 
  535000      1069970     294.2381   -7444.4067   -9197.6654    1753.2587   -7593.2538   -1604.4116    39.941572    63719.953    301.38359   0.83501298   -7164.3339 
  536000      1071970    305.02392   -12294.633    -14112.16    1817.5275   -12536.251   -1575.9089    39.888446    63466.031   -1081.3116    0.8383538   -13295.481 
  537000      1073970    299.02648   -10138.751   -11920.542    1781.7909   -10343.833   -1576.7091    39.956858     63793.14    -431.9535   0.83405501   -10540.622 
  538000      1075970    296.15456   -7994.6509    -9759.329    1764.6782   -8247.3151    -1512.014    39.975752    63883.682    581.60295   0.83287291   -7452.7842 
  539000      1077970    301.85196   -9993.3072   -11791.934    1798.6269   -10249.786   -1542.1486    39.963003    63822.578   -306.97018    0.8336703   -10279.031 
  540000      1079970    295.20207   -7856.3176   -9615.3203    1759.0027   -8095.7556   -1519.5647     39.94311    63727.318    669.03163   0.83491648   -7234.5213 
  541000      1081970    294.73875   -8677.4963   -10433.738    1756.2419   -8895.5535   -1538.1846    39.949372    63757.293    96.884664   0.83452396   -8587.4096 
  542000      1083970    300.31915    -10143.77   -11933.263    1789.4935   -10358.947   -1574.3161    39.954917    63783.846   -405.54341   0.83417654   -10521.015 
  543000      1085970    299.14381    -8248.968   -10031.458      1782.49    -8435.682    -1595.776    39.923314    63632.611    253.14389   0.83615912   -8014.0463 
  544000      1087970    299.21699   -7023.6439   -8806.5701    1782.9261    -7248.892   -1557.6781     40.01928     64092.59    663.76254   0.83015818   -6403.2087 
  545000      1089970     298.0138   -8162.0437   -9937.8004    1775.7567    -8356.715   -1581.0854    39.961476    63815.261    294.50645    0.8337659   -7887.9524 
  546000      1091970    309.26291   -8861.5819   -10704.368    1842.7861    -9168.193    -1536.175    39.939591    63710.474    326.44643   0.83513722   -8558.2636 
  547000      1093970    296.07545   -7680.4301   -9444.6369    1764.2068    -7879.411   -1565.2259    39.941114    63717.763    505.71167   0.83504169   -7210.4934 
  548000      1095970    308.71669   -8822.1958   -10661.727    1839.5314   -9130.4762    -1531.251    39.989572     63949.96    171.74784   0.83200972   -8662.0161 
  549000      1097970    296.13807   -9588.1689   -11352.749      1764.58   -9867.2207   -1485.5281     40.00524    64025.156    269.16601   0.83103254   -9336.8375 
  550000      1099970    305.86095   -6517.3796   -8339.8947    1822.5151   -6808.3802   -1531.5145    40.039985    64192.122     978.1084     0.828871   -5601.6978 
  551000      1101970    302.76046   -8634.1821   -10438.222    1804.0404   -8878.2427   -1559.9797    40.058682    64282.085    43.258376   0.82771099   -8593.6279 
  552000      1103970    296.66096   -9943.7738    -11711.47    1767.6957   -10168.225   -1543.2441    39.967247    63842.913   -214.31337   0.83340477   -10143.317 
  553000      1105970    296.76868   -7164.3965    -8932.734    1768.3375    -7440.578    -1492.156    39.965206    63833.134    1121.1867   0.83353244   -6120.6381 
  554000      1107970    290.54432   -8686.0265   -10417.275    1731.2488    -8931.343   -1485.9322    40.014499    64069.623    471.25273   0.83045577   -8245.6927 
  555000      1109970    296.73385    -9727.928   -11496.058      1768.13   -9936.1435   -1559.9144    40.051454    64247.298   -299.27716   0.82815916   -10008.345 
  556000      1111970    307.24881   -7726.3808   -9557.1656    1830.7849   -8025.0201   -1532.1455    39.977838    63893.682    630.87204   0.83274255   -7138.5192 
  557000      1113970    301.88427   -8273.0976   -10071.917    1798.8195   -8546.0461    -1525.871    39.968432    63848.595    401.84144    0.8333306   -7898.9164 
  558000      1115970    300.51127   -9214.7241   -11005.362    1790.6383   -9496.2709   -1509.0914    40.020667    64099.254    71.650897   0.83007188   -9147.7433 
  559000      1117970    297.52025   -7990.1662    -9762.982    1772.8159   -8195.8201   -1567.1619    40.088174    64424.167    175.21606   0.82588555   -7825.5401 
  560000      1119970     296.2191   -6737.6696   -8502.7324    1765.0628   -6934.7618   -1567.9706     40.00954    64045.801    793.81662   0.83076467   -5996.2113 
  561000      1121970     300.5513    -6846.131   -8637.0078    1790.8768   -7062.1714   -1574.8364    39.994498    63973.594    628.29893   0.83170234   -6259.9348 
  562000      1123970    301.70748   -7553.2111   -9350.9771     1797.766   -7805.3424   -1545.6348    39.951498    63767.473    720.08657   0.83439073   -6883.5427 
  563000      1125970     306.3247   -7748.6271   -9573.9055    1825.2784    -7988.643   -1585.2625    39.978655    63897.596    333.85184   0.83269154   -7437.5169 
  564000      1127970    304.23363   -9789.2233   -11602.042    1812.8185    -10025.69   -1576.3519    39.945077    63736.731   -196.65672   0.83479318   -9972.0226 
  565000      1129970    297.56765   -5372.1409   -7145.2391    1773.0983   -5628.3704   -1516.8687     39.95209    63770.306    1582.2614   0.83435365    -3900.599 
  566000      1131970    298.11879   -10193.673   -11970.055    1776.3824   -10413.394   -1556.6612    40.061815    64297.172   -561.30977   0.82751677   -10720.018 
  567000      1133970    308.33624    -8653.274   -10490.538    1837.2644   -8986.0353   -1504.5031    40.012412    64059.597    399.58808   0.83058574   -8279.9614 
  568000      1135970    292.37397    -9459.052   -11201.203     1742.151    -9679.192   -1522.0111    40.052372    64251.716    -51.17767   0.82810221   -9507.0078 
  569000      1137970    292.56898   -7993.6774   -9736.9904     1743.313   -8250.8451   -1486.1453    40.013337    64064.037    787.62894   0.83052818   -7257.7891 
  570000      1139970    301.90425   -9673.7743   -11472.713    1798.9385   -9918.9534   -1553.7595    40.049316    64237.009   -366.19611    0.8282918   -10016.838 
  571000      1141970    301.07176   -4821.5332   -6615.5111     1793.978   -5090.0347   -1525.4764    40.021212    64101.873    1631.8583   0.83003796    -3295.974 
  572000      1143970    313.14438   -10185.875   -12051.789    1865.9144    -10556.79    -1494.999    40.080787    64388.561   -280.35346   0.82634224   -10449.138 
  573000      1145970    302.12227   -6534.4107   -8334.6484    1800.2377   -6807.8021   -1526.8463    40.072988    64350.983    871.27329   0.82682479   -5716.7268 
  574000      1147970    298.87915   -8699.1667    -10480.08    1780.9131   -8969.2022   -1510.8776    40.035163    64168.932    254.21451   0.82917054   -8461.2631 
  575000      1149970    302.76245   -10163.632   -11967.685    1804.0522   -10511.295   -1456.3898    40.074108    64356.376   -85.476482    0.8267555   -10243.858 
  576000      1151970    307.34421   -8183.6901   -10015.043    1831.3533   -8483.7029   -1531.3404    40.024506      64117.7    290.70565   0.82983307   -7911.8539 
  577000      1153970    299.84337     -10540.7   -12327.359    1786.6585   -10804.798   -1522.5606    40.033134    64159.175   -479.54387   0.82929664   -10989.407 
  578000      1155970    289.33317   -8357.6417   -10081.674     1724.032   -8509.5069   -1572.1668    40.033756    64162.165    106.82287   0.82925799   -8257.6833 
  579000      1157970    300.97294   -8739.4132   -10532.802    1793.3892    -8992.277   -1540.5255    40.008204    64039.389    29.696808   0.83084784   -8711.6779 
  580000      1159970    300.22462   -7255.9189   -9044.8491    1788.9302   -7451.4568   -1593.3923    40.048575    64233.441    296.93873   0.82833781   -6977.7529 
  581000      1161970    291.23478   -7517.6384   -9253.0014     1735.363   -7739.6892   -1513.3122    40.047278    64227.205    604.40897   0.82841824   -6951.4958 
  582000      1163970    300.04219   -7673.4669   -9461.3102    1787.8432   -7983.1325   -1478.1777    40.033567    64161.259    681.41984    0.8292697   -7035.8446 
  583000      1165970    304.34068   -10494.062   -12307.519    1813.4564   -10791.927   -1515.5916    40.048414     64232.67   -426.26046   0.82834776   -10893.369 
  584000      1167970    294.68616   -5928.0402   -7683.9688    1755.9285   -6133.4758    -1550.493    39.961712    63816.394    1139.1893   0.83375109   -4867.8006 
  585000      1169970    293.78978   -10524.728   -12275.315    1750.5873   -10719.533   -1555.7817    39.990329    63953.589   -645.04457   0.83196251   -11126.359 
  586000      1171970    307.45567    -8609.072   -10441.089    1832.0174   -8881.0991   -1559.9904    40.003716    64017.838    65.456667   0.83112753   -8547.9594 
  587000      1173970    292.08159   -9011.1378   -10751.547    1740.4089   -9221.6906    -1529.856    39.986756    63936.448    165.26016   0.83218555   -8857.0414 
  588000      1175970     298.8295   -7492.0623   -9272.6795    1780.6172   -7663.9605    -1608.719    40.024791    64119.071    174.80697   0.82981533   -7328.5984 
  589000      1177970    315.78394   -9312.5928   -11194.235    1881.6426   -9673.4633   -1520.7722    39.998993    63995.165    64.235718   0.83142201   -9252.6414 
  590000      1179970    308.77712   -7999.5174   -9839.4089    1839.8915   -8276.0149    -1563.394    40.077311     64371.81    201.67642   0.82655728   -7810.1842 
  591000      1181970    295.97662   -7384.8951   -9148.5131    1763.6179   -7641.4497   -1507.0634    40.036278    64174.293    739.86607   0.82910127   -6692.4425 
  592000      1183970    297.55268   -10962.129   -12735.138    1773.0091   -11238.818     -1496.32    40.044078    64211.807   -518.95927    0.8286169   -11448.115 
  593000      1185970     300.4924    -7581.639   -9372.1648    1790.5258   -7913.3759   -1458.7889    40.030061    64144.403    862.28131   0.82948762   -6774.9918 
  594000      1187970    304.03537   -10060.657   -11872.295    1811.6371   -10372.147   -1500.1471    40.053024    64254.852   -205.18844    0.8280618   -10252.938 
  595000      1189970    303.54188   -7711.2221   -9519.9187    1808.6966   -7940.5701   -1579.3486    40.072514    64348.698    108.49746   0.82685416   -7609.4016 
  596000      1191970    309.26649   -9519.0849   -11361.892    1842.8075   -9876.8276   -1485.0648    40.001609    64007.723    131.14343   0.83125888   -9396.6642 
  597000      1193970     300.5512   -8688.3097   -10479.186    1790.8762   -9006.7046   -1472.4813    40.051829    64249.102    488.34752   0.82813591   -8230.7246 
  598000      1195970      301.424   -8185.9401    -9982.017    1796.0769   -8434.0809   -1547.9361    40.094424    64454.306    44.410537   0.82549935   -8144.1942 
  599000      1197970    304.24686    -8563.816   -10376.713    1812.8973   -8889.2271   -1487.4863    40.102685    64494.153    258.89246   0.82498934   -8320.3066 
  600000      1199970    301.98059    -8187.479   -9986.8724    1799.3934   -8447.7569   -1539.1155     40.08735    64420.198    203.94139   0.82593642   -7995.8755 
  601000      1201970    304.84096   -8372.7485   -10189.186    1816.4373   -8665.8099    -1523.376    39.964691    63830.668    443.88879   0.83356464   -7959.5303 
  602000      1203970    304.05746   -8080.2099   -9891.9786    1811.7687   -8393.1055   -1498.8731    40.026457    64127.079    496.37516    0.8297117   -7615.9861 
  603000      1205970    291.87825   -12351.619   -14090.817    1739.1972   -12633.114   -1457.7029    40.123019     64592.31   -919.71442   0.82373565   -13218.002 
  604000      1207970    309.69755   -9317.7949   -11163.171     1845.376   -9631.4801   -1531.6907    40.094421    64454.291   -205.26267   0.82549955   -9510.7417 
  605000      1209970    297.09325   -9536.5186    -11306.79    1770.2715   -9816.9054   -1489.8847    40.101166    64486.824   -61.838181   0.82508309   -9594.6758 
  606000      1211970    306.69528   -5539.0793   -7366.5658    1827.4865   -5876.8408    -1489.725    40.064555    64310.365    1495.5196   0.82734701   -4136.4304 
  607000      1213970    293.66657   -9820.5098   -11570.363    1749.8531   -10038.963   -1531.4001    40.092804    64446.495   -304.16979   0.82559941   -10106.395 
  608000      1215970    299.08862   -6428.1986   -8210.3598    1782.1612   -6724.7652   -1485.5946    40.005539    64026.589    1235.3313   0.83101394    -5274.693 
  609000      1217970    309.94336   -10002.602   -11849.442    1846.8407   -10327.481   -1521.9616    40.176908    64852.921   -440.88208   0.82042547   -10419.594 
  610000      1219970    304.95114   -4608.5581   -6425.6519    1817.0938    -4930.943   -1494.7089    40.088266    64424.615    1758.0631    0.8258798   -2956.7401 
  611000      1221970    294.79133   -8868.2015   -10624.757    1756.5552   -9120.6175   -1504.1392    40.086111    64414.224    201.75998   0.82601302    -8678.665 
  612000      1223970    295.61639   -9098.6682    -10860.14    1761.4714   -9339.3776   -1520.7621     40.01474    64070.776    117.56075   0.83044082   -8988.8187 
  613000      1225970    294.73678   -8134.5308    -9890.761    1756.2302    -8367.521     -1523.24    39.955357    63785.953     513.3881   0.83414898   -7656.9502 
  614000      1227970    298.27642   -7390.3591   -9167.6807    1777.3216    -7627.772   -1539.9087    40.002497    64011.988    677.67972    0.8312035   -6757.7117 
  615000      1229970      297.776   -8907.3631   -10681.703    1774.3398   -9140.9363   -1540.7665    40.017009     64081.68     168.6364   0.83029952   -8749.7613 
  616000      1231970    286.08644    -8615.045   -10319.731    1704.6859   -8801.1447   -1518.5862    40.096028    64462.042    82.610467   0.82540029   -8537.3818 
  617000      1233970    293.89222   -6797.6507   -8548.8485    1751.1977   -7016.8246   -1532.0238    40.111827     64538.27    676.82628   0.82442539   -6160.6053 
  618000      1235970    311.09072   -8061.2019   -9914.8792    1853.6774   -8426.5411   -1488.3381    40.099683     64479.67    446.87829   0.82517463    -7640.971 
  619000      1237970    298.06675   -7452.9738   -9229.0461    1776.0722   -7693.3073   -1535.7387    40.067558    64324.824     667.4155   0.82716103   -6826.8636 
  620000      1239970    296.56647   -8890.0109   -10657.144    1767.1326   -9128.1707   -1528.9728    40.146696    64706.726   -168.36326    0.8222791   -9048.8922 
  621000      1241970     313.2355   -7871.0064   -9737.4637    1866.4574   -8171.8378    -1565.626     40.09614    64462.581     107.5342   0.82539338   -7769.9113 
  622000      1243970    312.29014   -10213.785   -12074.609    1860.8243   -10574.689   -1499.9203    40.153853     64741.34   -493.18436   0.82183946   -10679.443 
  623000      1245970    299.93894   -8228.0021    -10015.23    1787.2279   -8493.3321   -1521.8979    40.129796    64625.046    220.64907   0.82331838   -8020.0426 
  624000      1247970    302.40575   -7777.8037   -9579.7305    1801.9268   -8011.3701   -1568.3604    40.077442    64372.441    300.58935   0.82654918   -7495.6086 
  625000      1249970    305.52243   -7699.6761   -9520.1741     1820.498   -8032.1179   -1488.0562    40.077662      64373.5    723.98572   0.82653558   -7019.9828 
  626000      1251970    305.22814   -7073.9698   -8892.7141    1818.7444   -7351.8139   -1540.9003    40.074938    64360.378    714.92228   0.82670409   -6402.9222 
  627000      1253970    302.93285   -9725.8687   -11530.936    1805.0676   -10039.375   -1491.5614    40.126842    64610.772     -126.719   0.82350026   -9845.2738 
  628000      1255970    293.27567   -6623.1757   -8370.6996    1747.5239   -6781.1323   -1589.5673    40.075702    64364.058    569.90673   0.82665683   -6088.2135 
  629000      1257970    298.32983   -8048.8284   -9826.4682    1777.6398    -8266.092   -1560.3762    40.111979    64539.003    98.825269   0.82441602   -7955.8106 
  630000      1259970    294.32678   -9224.1746   -10977.962    1753.7871   -9425.4724   -1552.4893     40.07507    64361.012   -210.63222   0.82669596   -9421.8823 
  631000      1261970    296.27378   -7536.2508   -9301.6394    1765.3886   -7755.0031   -1546.6363    40.051723     64248.59    416.50096    0.8281425   -7145.9895 
  632000      1263970    296.34617   -8745.6242   -10511.444    1765.8199   -9031.9756   -1479.4685    40.123956    64596.835    127.39814   0.82367794   -8625.6051 
  633000      1265970    297.88613   -9006.8862   -10781.882     1774.996   -9245.8268   -1536.0554    40.127536    64614.128   -150.22589   0.82345749   -9148.4487 
  634000      1267970    293.47724   -9728.8356   -11477.561     1748.725    -9914.352   -1563.2086    40.121486    64584.903   -621.38157   0.82383011   -10314.118 
  635000      1269970    290.53511   -12168.821   -13900.015    1731.1939   -12347.652   -1552.3628    40.104976    64505.209   -1290.4121   0.82484793   -13382.766 
  636000      1271970    295.87955   -7780.8934   -9543.9329    1763.0395   -7951.4547   -1592.4781    40.067798    64325.982    101.11279   0.82714615   -7686.0366 
  637000      1273970    288.79686    -8113.872   -9834.7083    1720.8363   -8310.6611   -1524.0472      40.0169    64081.156    487.57228   0.83030631   -7658.2075 
  638000      1275970    297.76867   -8161.8208   -9936.1169    1774.2961   -8451.0319    -1485.085    39.991202    63957.781     757.7662   0.83190798   -7455.0079 
  639000      1277970    303.00428   -7604.4157   -9409.9089    1805.4932   -7856.4606   -1553.4483    40.054239    64260.701    410.55054   0.82798642   -7219.6574 
  640000      1279970     299.6536   -10823.365   -12608.893    1785.5277   -11095.669   -1513.2235    40.130448    64628.195   -628.46675   0.82327826   -11415.717 
  641000      1281970    297.64595   -8894.7124   -10668.277    1773.5648    -9153.455   -1514.8222    40.101119    64486.601    153.08159   0.82508594   -8750.7436 
  642000      1283970    307.30967   -8334.2236   -10165.371    1831.1475   -8581.9256   -1583.4455     40.16095    64775.672   -121.49194   0.82140387   -8448.9954 
  643000      1285970    306.00056   -7734.8058   -9558.1528     1823.347   -8007.3339   -1550.8188    40.145252    64699.743    159.93079   0.82236784   -7583.8984 
  644000      1287970     306.2663   -8526.5184   -10351.449    1824.9304   -8846.4258    -1505.023    40.106373    64511.951    215.82541   0.82476172   -8323.4611 
  645000      1289970    299.22338   -9468.7204   -11251.685    1782.9642   -9695.2958   -1556.3887    40.094283    64453.625   -362.51556   0.82550808   -9809.4814 
  646000      1291970    295.59843   -10466.391   -12227.755    1761.3644   -10675.311   -1552.4445    40.024239    64116.418   -522.89545   0.82984966   -10955.336 
  647000      1293970    295.21014   -6155.2934   -7914.3441    1759.0508    -6402.731   -1511.6131    40.023654    64113.607    1315.2215   0.82988605   -4925.5202 
  648000      1295970    303.72783   -8279.9684   -10089.773    1809.8046   -8571.5386   -1518.2345    40.085294    64410.285     290.7466   0.82606355   -8006.8533 
  649000      1297970    297.10657   -6261.6339   -8031.9848    1770.3509   -6517.0605   -1514.9243    40.137711    64663.289    883.00394   0.82283145   -5428.9191 
  650000      1299970    303.45536   -8934.1378   -10742.319    1808.1811   -9212.3742   -1529.9447    40.124132    64597.684   -160.72397   0.82366712   -9085.5544 
  651000      1301970    307.39889   -8357.5821   -10189.261    1831.6791   -8638.1466   -1551.1145    40.109709    64528.049     12.02404   0.82455597   -8346.2665 
  652000      1303970     301.1846   -7620.7805   -9415.4309    1794.6504    -7885.333    -1530.098    40.105983    64510.069    427.44003   0.82478579   -7218.6393 
  653000      1305970    297.55229   -8379.5594   -10152.566    1773.0068   -8624.5539   -1528.0123    40.119915    64577.318    133.01964   0.82392688   -8254.2823 
  654000      1307970    305.57975   -8295.5293   -10116.369    1820.8395   -8624.0606   -1492.3082    40.165155    64796.022    305.44496    0.8211459   -8006.8888 
  655000      1309970    300.07832   -8812.1133   -10600.172    1788.0585   -9011.2861   -1588.8857    40.114693    64552.108   -364.54069   0.82424866   -9155.3014 
  656000      1311970    290.99952   -5395.2454   -7129.2066    1733.9612   -5528.3219   -1600.8847    40.125477    64604.179    778.33535   0.82358431    -4661.909 
  657000      1313970    293.83497   -8173.5379   -9924.3945    1750.8566   -8374.6877   -1549.7067    40.111792    64538.105    88.026104   0.82442749   -8090.6857 
  658000      1315970    297.01767   -7730.2831   -9500.1043    1769.8212   -7931.3481   -1568.7561    40.104315    64502.021    192.63198    0.8248887    -7549.075 
  659000      1317970     303.7072   -6803.0869   -8612.7686    1809.6817   -7046.8393   -1565.9293    40.079984     64384.69     543.3231   0.82639192   -6292.9149 
  660000      1319970    299.34439   -6992.9664   -8776.6516    1783.6852   -7242.3236    -1534.328    40.148459    64715.249    527.86968    0.8221708   -6494.7601 
  661000      1321970    311.28802   -8363.7259   -10218.579     1854.853   -8671.4836   -1547.0954    40.155225    64747.975    23.541254   0.82175525   -8341.4963 
  662000      1323970    314.78476   -8834.0402   -10709.729    1875.6888   -9164.7252   -1545.0039    40.148663    64716.239   -85.198291   0.82215823   -8914.4521 
  663000      1325970     301.7122   -8547.7105   -10345.505    1797.7942   -8875.1877    -1470.317    40.120322    64579.286    436.33904   0.82390177   -8136.7565 
  664000      1327970    308.14732   -9190.6264   -11026.765    1836.1387   -9536.7908   -1489.9743    40.182186     64878.48    6.6329858   0.82010226   -9184.3504 
  665000      1329970    297.25282   -8836.0775     -10607.3    1771.2223   -9046.3156   -1560.9842    40.182386    64879.449   -347.39107   0.82009002    -9164.779 
  666000      1331970    305.58976   -7591.2603   -9412.1595    1820.8992   -7859.5872   -1552.5723    40.174099    64839.316    295.46516   0.82059762   -7311.8641 
  667000      1333970    293.98474   -6368.0282   -8119.7772     1751.749    -6514.559   -1605.2182    40.096673    64465.155    544.63473   0.82536043   -5855.9854 
  668000      1335970    304.75612   -7317.6676   -9133.5994    1815.9318   -7613.4983   -1520.1011    40.050297    64241.727     740.1451   0.82823097   -6624.2259 
  669000      1337970    297.96687   -8106.8399    -9882.317    1775.4771   -8382.9692   -1499.3478    40.141207    64680.191    318.12041   0.82261643   -7806.7588 
  670000      1339970    296.83685   -7126.7255   -8895.4692    1768.7437   -7338.4495   -1557.0198    40.099968    64481.045    539.62424   0.82515703   -6619.2683 
  671000      1341970     301.1296   -8426.9798   -10221.303    1794.3227   -8674.4718   -1546.8307    40.049302    64236.943    141.94486   0.82829266   -8294.0016 
  672000      1343970    297.94575   -8975.7037   -10751.055    1775.3512   -9183.0438   -1568.0111    40.088694    64426.675   -152.50071   0.82585339   -9118.9929 
  673000      1345970    292.22657   -10245.845   -11987.118    1741.2727   -10524.472   -1462.6461     40.06862     64329.94   -14.485348   0.82709525   -10259.435 
  674000      1347970    306.70251   -10359.167   -12186.696    1827.5296   -10630.779   -1555.9177    40.157677    64759.837   -761.38673   0.82160472   -11078.263 
  675000      1349970    309.93739   -11098.076   -12944.881    1846.8051   -11460.844   -1484.0372    40.057328    64275.569   -440.87131    0.8277949   -11511.346 
  676000      1351970    297.56821   -8681.2927   -10454.394    1773.1016   -8901.8677   -1552.5267    40.092837    64446.652   -34.503339    0.8255974    -8713.722 
  677000      1353970     302.9656   -6973.0914   -8778.3542    1805.2627   -7233.2938   -1545.0603    40.053534    64257.306    657.54895   0.82803017   -6356.8846 
  678000      1355970    305.55328   -5294.0042    -7114.686    1820.6818   -5558.8839    -1555.802    39.981223    63909.911    1439.5364   0.83253109   -3952.2692 
  679000      1357970    299.78682   -5976.3243   -7762.6458    1786.3215   -6294.0196   -1468.6262    40.087137     64419.17    1429.7652    0.8259496   -4633.0777 
  680000      1359970    304.83793   -7712.7002   -9529.1195    1816.4193   -8050.7613   -1478.3582     40.12731    64613.034    589.23593   0.82347144   -7157.4545 
  681000      1361970    301.22835   -7268.9283   -9063.8394    1794.9111   -7481.8184    -1582.021    40.051723    64248.592    429.52937   0.82814247   -6866.4594 
  682000      1363970    295.69161   -8213.8418   -9975.7614    1761.9196   -8450.7599   -1525.0015    40.073763    64354.714     308.9354   0.82677686   -7923.8913 
  683000      1365970    313.26296   -8771.3365   -10637.958     1866.621   -9092.5305    -1545.427     40.10283    64494.855   -112.01686   0.82498035   -8876.6986 
  684000      1367970    305.98442   -10532.944   -12356.194    1823.2508   -10830.959   -1525.2351    40.101716    64489.478    -577.7936   0.82504914   -11076.366 
  685000      1369970    300.99466   -6382.1146   -8175.6332    1793.5186   -6657.8515   -1517.7817    40.023703    64113.839    1091.2592   0.82988304   -5361.7495 
  686000      1371970    310.45206   -9710.3622   -11560.234    1849.8719   -10067.584   -1492.6504    40.057714    64277.427    101.46637   0.82777097   -9615.2456 
  687000      1373970    308.83628    -9844.728   -11684.972     1840.244   -10143.428   -1541.5438    40.075941     64365.21   -313.89658   0.82664204   -10139.383 
  688000      1375970    302.40491   -7350.1437   -9152.0655    1801.9218   -7597.0928   -1554.9727    40.023357    64112.179    549.74265   0.82990453   -6836.1286 
  689000      1377970    299.57192   -7193.3256   -8978.3667     1785.041   -7473.6326    -1504.734    40.053223    64255.809    847.10719   0.82804947   -6399.4972 
  690000      1379970     302.9793   -9732.3624   -11537.707    1805.3444   -10039.857   -1497.8498    40.095981    64461.816   -86.410248   0.82540318   -9813.5975 
  691000      1381970    304.00237   -10240.678   -12052.119    1811.4405   -10538.951   -1513.1678    40.041236    64198.138   -305.95002   0.82879332   -10527.128 
  692000      1383970    301.05166   -8768.3295   -10562.188    1793.8583   -9016.7163   -1545.4715    40.053073     64255.09    54.690582   0.82805873   -8717.0792 
  693000      1385970    306.62007   -6565.9695   -8393.0079    1827.0384   -6854.5635   -1538.4444    40.054086    64259.963    792.02181   0.82799593   -5823.7138 
  694000      1387970    292.45588    -7761.458   -9504.0971    1742.6391   -7972.2188   -1531.8784    40.058397    64280.717    457.29244    0.8277286   -7332.7609 
  695000      1389970    296.90977   -6686.9773   -8456.1555    1769.1782   -6910.9444   -1545.2111    40.080888    64389.049    760.95705   0.82633598   -5972.4019 
  696000      1391970    301.23245   -5683.8114   -7478.7469    1794.9355   -6008.8666   -1469.8803    40.058722    64282.282    1547.8656   0.82770845   -4232.7011 
  697000      1393970    302.42987   -10508.902   -12310.973    1802.0705   -10843.872   -1467.1013    40.042542    64204.419   -12.900383   0.82871224   -10520.982 
  698000      1395970    300.70355   -8403.7928   -10195.577     1791.784   -8656.8296   -1538.7471     40.04288    64206.046    242.06726   0.82869125    -8177.126 
  699000      1397970    306.03029   -6994.4025   -8817.9266    1823.5241    -7253.473   -1564.4536    40.044773    64215.153      560.803   0.82857371   -6469.2037 
  700000      1399970    299.96012   -8487.2755    -10274.63    1787.3542   -8750.5092   -1524.1205    40.052159    64250.689    287.89886   0.82811545   -8217.5055 
  701000      1401970    295.19093   -7695.7147    -9454.651    1758.9363   -7985.6769   -1468.9741    40.044803    64215.294    796.01053    0.8285719   -6950.2395 
  702000      1403970    300.26704   -11150.691   -12939.874     1789.183   -11398.735   -1541.1387    40.038698    64185.929    -765.5431   0.82895097   -11867.305 
  703000      1405970    303.72187   -9448.6518   -11258.421    1809.7691   -9787.1465   -1471.2743    40.051275    64246.435    149.40374   0.82817029   -9308.6652 
  704000      1407970    294.17893   -11026.154    -12779.06    1752.9061   -11311.605   -1467.4542     39.99725    63986.801    -223.6425   0.83153067   -11234.853 
  705000      1409970    307.80901   -7756.0341    -9590.157    1834.1228    -8094.693   -1495.4639    40.059125    64284.218    635.73645   0.82768352   -7160.0189 
  706000      1411970    295.87246   -9402.5619   -11165.559    1762.9973   -9614.8381   -1550.7211    40.006924    64033.239   -15.451633   0.83092764   -9416.9916 
  707000      1413970    297.02815   -8899.3514   -10669.235    1769.8836   -9121.5022   -1547.7328    39.978964    63899.078     127.7404   0.83267224   -8780.3098 
  708000      1415970    285.48857   -5655.0062   -7356.1297    1701.1234   -5846.4466   -1509.6831    39.971186    63861.794    1453.2977   0.83315837   -4301.4647 
  709000      1417970    308.09949   -5972.1213    -7807.975    1835.8537   -6247.5359   -1560.4391    39.990938     63956.51    1070.0472   0.83192451   -4974.0453 
  710000      1419970    302.08098   -10212.142   -12012.134    1799.9916    -10467.08   -1545.0539    39.981235     63909.97   -371.77377   0.83253033   -10558.658 
  711000      1421970    295.16595   -9210.2803   -10969.068    1758.7875   -9414.1045   -1554.9632    40.047986    64230.609   -139.30263   0.82837434   -9340.7703 
  712000      1423970    292.49438   -7040.7974   -8783.6658    1742.8685   -7237.9676   -1545.6982     39.99729    63986.991     725.1136   0.83152821   -6364.1325 
  713000      1425970    300.91812   -8763.5785   -10556.641    1793.0625   -8969.0987   -1587.5424    39.976778    63888.599   -75.189619    0.8328088   -8833.6364 
  714000      1427970    296.62026   -8113.8061   -9881.2593    1767.4531   -8282.6366   -1598.6226    39.912769    63582.206     228.5053   0.83682199   -7901.9175 
  715000      1429970    302.31943   -9420.1235   -11221.536    1801.4124   -9706.7381   -1514.7979    39.968817    63850.439    108.14492   0.83330654   -9319.4197 
  716000      1431970    305.54291   -10808.856   -12629.476      1820.62    -11140.96    -1488.516     40.02633    64126.468   -459.40289   0.82971961   -11238.498 
  717000      1433970    305.12772   -9018.7279   -10836.874     1818.146   -9318.2378   -1518.6362    39.984529    63925.769    85.184733   0.83232457   -8939.3109 
  718000      1435970    300.05793   -6332.8431     -8120.78     1787.937   -6597.1025   -1523.6775    39.930976    63669.254    1206.3913   0.83567789   -5212.6475 
  719000      1437970    307.98208   -8867.6969   -10702.851    1835.1541   -9200.5193   -1502.3318     40.02828    64135.841    248.42155   0.82959835   -8635.3344 
  720000      1439970    287.67706   -10173.353   -11887.517    1714.1638   -10357.878    -1529.639    40.063423    64304.914   -510.40068   0.82741714   -10652.018 
  721000      1441970    304.68009    -8252.017   -10067.496    1815.4788   -8544.8922   -1522.6036    40.105609    64508.263    234.77118   0.82480888   -8031.1473 
  722000      1443970    302.22696   -5935.5043   -7736.3658    1800.8614   -6225.7361   -1510.6297    40.040016     64192.27     1110.721   0.82886909   -4895.6714 
  723000      1445970    290.88194   -8156.2152   -9889.4758    1733.2605     -8313.06   -1576.4157    40.062845    64302.129      10.6005   0.82745297   -8146.2743 
  724000      1447970    288.54234   -8751.4575   -10470.777    1719.3197   -8955.7051   -1515.0721    40.051229    64246.216    220.28939   0.82817311    -8545.054 
  725000      1449970     311.1184   -8851.3062   -10705.148    1853.8423   -9193.6169   -1511.5315    40.037309     64179.25    176.02715   0.82903724   -8686.5468 
  726000      1451970    296.68515   -10908.685   -12676.525    1767.8398   -11198.697   -1477.8284    40.109266    64525.911   -541.72984    0.8245833   -11418.477 
  727000      1453970    302.58249   -5710.1711    -7513.151    1802.9799   -5987.2641   -1525.8869    40.038379    64184.394     1216.311   0.82897079   -4571.6268 
  728000      1455970    301.91251   -8174.1392   -9973.1269    1798.9878    -8451.326    -1521.801    40.065193    64313.436    283.07427    0.8273075   -7908.6309 
  729000      1457970    294.53275    -9064.757   -10819.771    1755.0144   -9290.9148   -1528.8566    40.064693    64311.029    -32.52353   0.82733847   -9095.2611 
  730000      1459970    314.94801   -7730.8061   -9607.4677    1876.6616   -8077.2151   -1530.2526    40.041886    64201.265    451.81228   0.82875296   -7307.7699 
  731000      1461970    298.34869    -9163.503   -10941.255    1777.7522   -9433.5474   -1507.7078    40.070358     64338.31   -7.0848573   0.82698765   -9170.1508 
  732000      1463970    295.21182   -8447.7254   -10206.786    1759.0607   -8738.9873   -1467.7989    39.987891    63941.896    663.81484   0.83211464   -7828.7002 
  733000      1465970     305.1916   -6433.3233   -8251.8499    1818.5266   -6726.4291   -1525.4209    40.002004    64009.622     1013.547   0.83123422   -5487.1623 
  734000      1467970    299.93465   -8564.6074    -10351.81    1787.2024    -8808.156   -1543.6538    39.998042    63990.601    179.44957    0.8314813   -8397.1384 
  735000      1469970    301.22237   -10462.843   -12257.719    1794.8754   -10746.186   -1511.5328    40.003488    64016.742   -415.88869   0.83114176   -10851.125 
  736000      1471970    294.53424   -6461.1726   -8216.1959    1755.0233   -6696.5578   -1519.6381    40.012877    64061.831    1040.8794   0.83055678   -5488.7039 
  737000      1473970    305.42128   -9521.5087   -11341.404    1819.8952   -9788.7526   -1552.6514     40.05961    64286.554   -347.49655   0.82765345   -9847.3053 
  738000      1475970    296.13857   -8660.1536   -10424.737    1764.5829   -8867.9942   -1556.7423    40.010815    64051.926    30.986451   0.83068522   -8631.2082 
  739000      1477970    307.73506   -9512.5086   -11346.191    1833.6822   -9808.1704   -1538.0204    40.081871    64393.785   -331.34748   0.82627521   -9823.6827 
  740000      1479970    304.01747   -5688.4004   -7499.9309    1811.5305   -5967.4878    -1532.443    40.044486    64213.771    1147.7628   0.82859155   -4613.5297 
  741000      1481970    304.88782   -10194.707   -12011.424    1816.7166   -10486.647   -1524.7773    40.031699    64152.274   -371.95024   0.82938585   -10542.702 
  742000      1483970    307.57513   -6397.1689   -8229.8981    1832.7293   -6681.6017   -1548.2964    40.029743    64142.871    884.54413   0.82950743    -5569.715 
  743000      1485970    300.71197   -9391.5806   -11183.415    1791.8341   -9638.3311   -1545.0836    40.029577    64142.075   -238.68964   0.82951772   -9614.8619 
  744000      1487970    304.61264   -10451.486   -12266.563    1815.0769   -10752.812   -1513.7515      40.0159    64076.351   -414.85258   0.83036858   -10839.161 
  745000      1489970    294.89614   -9642.3574   -11399.537    1757.1797   -9888.6628   -1510.8743    40.107165    64515.773   -245.43937   0.82471287   -9873.2904 
  746000      1491970    303.70021   -8031.0634   -9840.7034      1809.64   -8256.1426   -1584.5608    40.053143    64255.425     47.59141   0.82805441   -7986.4655 
  747000      1493970    298.32054   -9659.1496   -11436.734    1777.5845   -9901.2355   -1535.4986    39.979718    63902.696   -188.66219   0.83262509   -9834.9743 
  748000      1495970    303.67822   -8304.3511    -10113.86     1809.509   -8556.3131   -1557.5469    39.987814    63941.524    148.66022   0.83211948   -8165.7222 
  749000      1497970    299.51308   -7449.8914   -9234.5818    1784.6904   -7715.3048    -1519.277    39.978995    63899.231    737.76852   0.83267025   -6762.3614 
  750000      1499970    307.53767   -6705.0427   -8537.5487     1832.506   -6955.7189   -1581.8299    40.025978    64124.774    490.18794   0.82974153   -6246.6219 
  750015      1500000    297.28415   -9788.8985   -11560.308     1771.409   -10036.813   -1523.4944    40.028012     64134.55   -199.32992   0.82961506   -9975.3391 
Loop time of 6817.51 on 1 procs for 750000 steps with 3000 atoms

Performance: 19.010 ns/day, 1.263 hours/ns, 110.011 timesteps/s
75.5% CPU use with 1 MPI tasks x no OpenMP threads

MPI task timing breakdown:
Section |  min time  |  avg time  |  max time  |%varavg| %total
---------------------------------------------------------------
Pair    | 5880.2     | 5880.2     | 5880.2     |   0.0 | 86.25
Bond    | 0.57934    | 0.57934    | 0.57934    |   0.0 |  0.01
Neigh   | 697.8      | 697.8      | 697.8      |   0.0 | 10.24
Comm    | 36.751     | 36.751     | 36.751     |   0.0 |  0.54
Output  | 2.282      | 2.282      | 2.282      |   0.0 |  0.03
Modify  | 191.12     | 191.12     | 191.12     |   0.0 |  2.80
Other   |            | 8.806      |            |       |  0.13

Nlocal:        3000.00 ave        3000 max        3000 min
Histogram: 1 0 0 0 0 0 0 0 0 0
Nghost:        9212.00 ave        9212 max        9212 min
Histogram: 1 0 0 0 0 0 0 0 0 0
Neighs:       504130.0 ave      504130 max      504130 min
Histogram: 1 0 0 0 0 0 0 0 0 0

Total # of neighbors = 504130
Ave neighs/atom = 168.04333
Ave special neighs/atom = 2.0000000
Neighbor list builds = 51566
Dangerous builds = 4092

write_data npt_simulation_result.lmp
System init for write_data ...
Total wall time: 1:53:37
