LAMMPS (29 Oct 2020)
OMP_NUM_THREADS environment is not set. Defaulting to 1 thread. (src/comm.cpp:94)
  using 1 OpenMP thread(s) per MPI task
units		real
atom_style	full

pair_style	lj/cut/coul/cut 10.0
pair_modify	mix geometric

bond_style	zero
angle_style	zero

read_data	methdata.lmp
Reading data file ...
  orthogonal box = (-25.981333 -25.356000 -25.542999) to (25.102667 25.728000 25.541001)
  1 by 1 by 1 MPI processor grid
  reading atoms ...
  3000 atoms
  scanning bonds ...
  1 = max bonds/atom
  scanning angles ...
  1 = max angles/atom
  reading bonds ...
  2000 bonds
  reading angles ...
  1000 angles
Finding 1-2 1-3 1-4 neighbors ...
  special bond factors lj:    0.0      0.0      0.0     
  special bond factors coul:  0.0      0.0      0.0     
     2 = max # of 1-2 neighbors
     1 = max # of 1-3 neighbors
     1 = max # of 1-4 neighbors
     2 = max # of special neighbors
  special bonds CPU = 0.000 seconds
  read_data CPU = 0.063 seconds

pair_coeff	1 1 0.2072 3.748 	#	CH3
pair_coeff	2 2 0.0210 1.580	#	H
pair_coeff	3 3 0.1554 3.192	#	O

bond_coeff 1 1.43
bond_coeff 2 0.945

angle_coeff	1 108.5

min_style   sd
minimize 1e-10 1e-10 100 100
WARNING: Using 'neigh_modify every 1 delay 0 check yes' setting during minimization (src/min.cpp:187)
Neighbor list info ...
  update every 1 steps, delay 0 steps, check yes
  max neighbors/atom: 2000, page size: 100000
  master list distance cutoff = 12
  ghost atom cutoff = 12
  binsize = 6, bins = 9 9 9
  1 neighbor lists, perpetual/occasional/extra = 1 0 0
  (1) pair lj/cut/coul/cut, perpetual
      attributes: half, newton on
      pair build: half/bin/newton
      stencil: half/bin/3d/newton
      bin: standard
Per MPI rank memory allocation (min/avg/max) = 8.696 | 8.696 | 8.696 Mbytes
Step Temp E_pair E_mol TotEng Press 
       0            0   -17427.221            0   -17427.221   -3544.8041 
      15            0   -91865.176            0   -91865.176   -15944.121 
Loop time of 0.57414 on 1 procs for 15 steps with 3000 atoms

100.7% CPU use with 1 MPI tasks x 1 OpenMP threads

Minimization stats:
  Stopping criterion = max force evaluations
  Energy initial, next-to-last, final = 
     -17427.2210874372  -91865.1761216674   -91865.176450676
  Force two-norm initial, final = 114.05111 651.79346
  Force max component initial, final = 2.2186487 15.393020
  Final line search alpha, max atom move = 7.7443729e-10 1.1920929e-08
  Iterations, force evaluations = 15 101

MPI task timing breakdown:
Section |  min time  |  avg time  |  max time  |%varavg| %total
---------------------------------------------------------------
Pair    | 0.55238    | 0.55238    | 0.55238    |   0.0 | 96.21
Bond    | 0          | 0          | 0          |   0.0 |  0.00
Neigh   | 0          | 0          | 0          |   0.0 |  0.00
Comm    | 0.0040638  | 0.0040638  | 0.0040638  |   0.0 |  0.71
Output  | 0          | 0          | 0          |   0.0 |  0.00
Modify  | 0          | 0          | 0          |   0.0 |  0.00
Other   |            | 0.0177     |            |       |  3.08

Nlocal:        3000.00 ave        3000 max        3000 min
Histogram: 1 0 0 0 0 0 0 0 0 0
Nghost:        5624.00 ave        5624 max        5624 min
Histogram: 1 0 0 0 0 0 0 0 0 0
Neighs:       251000.0 ave      251000 max      251000 min
Histogram: 1 0 0 0 0 0 0 0 0 0

Total # of neighbors = 251000
Ave neighs/atom = 83.666667
Ave special neighs/atom = 2.0000000
Neighbor list builds = 0
Dangerous builds = 0

velocity	all create 300.0 2345

timestep	2.0

fix	stiff all shake 0.0001 20 0 b 1	2 a 1
       0 = # of size 2 clusters
       0 = # of size 3 clusters
       0 = # of size 4 clusters
    1000 = # of frozen angles
  find clusters CPU = 0.010 seconds

#fix	1 all nvt temp 300.0 300.0 $(100.0*dt)
fix     1 all npt temp 300.0 300.0 $(100.0*dt) iso 1.0 1.0 $(1000.0*dt)
fix     1 all npt temp 300.0 300.0 200 iso 1.0 1.0 $(1000.0*dt)
fix     1 all npt temp 300.0 300.0 200 iso 1.0 1.0 2000

thermo	1000
thermo_style	custom step time temp etotal pe ke ecoul evdwl lx vol press density enthalpy

dump TRAJ all custom 1000 npt_methanol_simulation.lammpstrj id mol type element xs ys zs
dump_modify TRAJ element CH3 H O

compute myRDF all rdf 50
fix 2 all ave/time 100 1 20000 c_myRDF[*] file methanol_simulation.rdf mode vector

run 750000
Neighbor list info ...
  update every 1 steps, delay 10 steps, check yes
  max neighbors/atom: 2000, page size: 100000
  master list distance cutoff = 12
  ghost atom cutoff = 12
  binsize = 6, bins = 9 9 9
  2 neighbor lists, perpetual/occasional/extra = 1 1 0
  (1) pair lj/cut/coul/cut, perpetual
      attributes: half, newton on
      pair build: half/bin/newton
      stencil: half/bin/3d/newton
      bin: standard
  (2) compute rdf, occasional, copy from (1)
      attributes: half, newton on
      pair build: copy
      stencil: none
      bin: none
Per MPI rank memory allocation (min/avg/max) = 8.447 | 8.447 | 8.447 Mbytes
Step Time Temp TotEng PotEng KinEng E_coul E_vdwl Lx Volume Press Density Enthalpy 
      15            0    450.07504   -89183.342   -91865.176    2681.8348   -90733.712   -1131.4641       51.084    133307.53   -16962.633   0.39912965   -122161.31 
    1000         1970     311.7183   -3126.0706   -4983.4876    1857.4169   -4305.4886   -677.99897    48.408922    113442.62    101.70965   0.46902116   -2957.7977 
    2000         3970    304.79666   -4209.5838   -6025.7571    1816.1734   -5236.5562   -789.20096    46.878913    103022.62   -172.34336   0.51645926   -4468.5261 
    3000         5970    304.10202   -3744.4717   -5556.5059    1812.0342   -4707.1373   -849.36867     45.73713    95676.822    158.17209   0.55611157   -3523.7665 
    4000         7970    299.49517    -5168.779   -6953.3626    1784.5837   -5942.1777   -1011.1849    44.979643    91001.388   -481.56644   0.58468326   -5807.8956 
    5000         9970    302.25335    -6077.862   -7878.8806    1801.0187   -6787.9995   -1090.8812    44.292756    86895.666    -646.7214   0.61230888   -6897.4418 
    6000        11970    292.13387   -5471.9467    -7212.667    1740.7203   -6078.9785   -1133.6886    43.652291    83180.422   -282.79783   0.63965759   -5815.0091 
    7000        13970    304.80263   -4059.3981    -5875.607    1816.2089   -4654.1613   -1221.4458    43.135343    80260.114    44.105889   0.66293188   -4007.7717 
    8000        15970    297.82905   -4873.1406   -6647.7964    1774.6559   -5404.7053   -1243.0912     42.76282    78198.606    121.50907    0.6804084    -4734.566 
    9000        17970    294.44621    -4339.566   -6094.0648    1754.4988   -4830.8069   -1263.2578     42.46504    76576.343    355.32342   0.69482279   -3942.7453 
   10000        19970    291.05742   -5909.4889   -7643.7951    1734.3062   -6306.6119   -1337.1832     42.28441    75603.313   -320.33296    0.7037653    -6262.687 
   11000        21970     303.9149   -6249.7301   -8060.6494    1810.9193   -6757.8045   -1302.8449    42.122543    74738.392   -67.294608   0.71190972     -6323.08 
   12000        23970    300.97948   -5312.9143   -7106.3424    1793.4282   -5748.4059   -1357.9365    41.875362    73430.371    265.03732   0.72459103    -5029.084 
   13000        25970    305.01323   -5315.5473   -7133.0112    1817.4638   -5769.9004   -1363.1107    41.694181    72481.363    334.23331    0.7340782   -4962.2406 
   14000        27970    299.34928   -5125.4281   -6909.1425    1783.7144   -5532.3676   -1376.7749    41.571597    71843.936      369.659   0.74059122   -4738.1105 
   15000        29970    303.71757   -5379.4327   -7189.1761    1809.7434   -5771.2529   -1417.9233     41.44515    71190.353    320.01734   0.74739042   -5047.1785 
   16000        31970    301.22702   -5519.0914   -7313.9945    1794.9032   -5967.2396    -1346.755    41.467202    71304.049    410.12208   0.74619869   -5092.6069 
   17000        33970    299.97643    -4512.063   -6299.5143    1787.4513    -4849.373   -1450.1413    41.326735    70581.891    402.87463   0.75383341   -4097.3582 
   18000        35970     289.5842   -6493.4996   -8219.0274    1725.5278   -6809.4952   -1409.5322    41.297334    70431.357    59.601627   0.75544459   -6432.2787 
   19000        37970    307.35328   -6356.8017    -8188.209    1831.4073   -6751.6422   -1436.5668    41.116832    69511.866    249.68288   0.76543749   -6103.6833 
   20000        39970    300.69807   -4424.3227    -6216.074    1791.7513   -4798.8292   -1417.2448    41.143114    69645.246    796.27928   0.76397157   -3615.5382 
   21000        41970    308.20715    -8108.207   -9944.7023    1836.4952    -8482.413   -1462.2893    41.072719    69288.373   -452.44576   0.76790645   -8565.4034 
   22000        43970    295.95682   -6286.9225   -8050.4224    1763.4999   -6558.1406   -1492.2818    40.940354    68620.642    104.45669   0.77537876   -6182.3863 
   23000        45970    298.09807   -7988.2762    -9764.535    1776.2588   -8296.5552   -1467.9798    40.983693    68838.795   -287.77445   0.77292155   -8277.1854 
   24000        47970    304.31883   -7256.5809    -9069.907    1813.3261   -7636.3671   -1433.5399    40.942035    68629.098     85.03312   0.77528322   -7171.4725 
   25000        49970    305.94679   -6855.8344    -8678.861    1823.0266   -7221.6649   -1457.1961    40.923846     68537.67    92.861962   0.77631744   -6763.0141 
   26000        51970    295.64908   -10081.091   -11842.757    1761.6662   -10388.873   -1453.8837    40.949498    68666.634   -947.58963   0.77485942   -11030.038 
   27000        53970    299.72703   -5906.8953   -7692.8606    1785.9653   -6292.6729   -1400.1877    40.870242      68268.7    826.86257   0.77937602    -5083.647 
   28000        55970    306.87089   -6433.1597   -8261.6927    1828.5329   -6809.3853   -1452.3073    40.836194    68098.221    350.92677   0.78132714   -6084.6394 
   29000        57970    298.87968   -7709.4573   -9490.3735    1780.9162   -7989.0654   -1501.3081    40.722404    67530.542   -169.38884   0.78789518   -7876.2822 
   30000        59970    298.59301    -9738.967   -11518.175     1779.208   -10023.478   -1494.6965    40.775139    67793.236    -976.0701   0.78484214   -10704.002 
   31000        61970    295.98791   -5551.9529   -7315.6381    1763.6852   -5838.7561    -1476.882    40.651426    67178.042    788.01302   0.79202945   -4779.9185 
   32000        63970    306.07076   -7145.5241   -8969.2893    1823.7653   -7462.3491   -1506.9402    40.729661     67566.65    46.025602   0.78747411   -7100.1709 
   33000        65970    304.99976   -4896.4156   -6713.7992    1817.3836   -5167.2381    -1546.561    40.696129    67399.908    571.11029   0.78942227   -4335.0379 
   34000        67970    297.97731   -6456.4195   -8231.9588    1775.5393   -6663.5254   -1568.4334    40.780142    67818.191   -225.46442   0.78455334   -6679.4171 
   35000        69970    294.59748   -7437.2206   -9192.6207    1755.4001   -7740.3551   -1452.2656    40.752762     67681.68    214.91307   0.78613574   -7225.0868 
   36000        71970    300.72983   -9497.7954   -11289.736    1791.9406   -9747.1812   -1542.5549    40.731879    67577.689    -1000.865   0.78734548   -10484.199 
   37000        73970    296.66419   -8662.4203   -10430.135    1767.7149   -8913.9328   -1516.2023     40.76338    67734.601   -577.21363   0.78552154   -9232.6148 
   38000        75970    297.15216   -8406.3693   -10176.992    1770.6225    -8689.608   -1487.3838    40.718757    67512.401   -388.27246   0.78810689    -8788.662 
   39000        77970    297.27345   -6861.7602   -8633.1054    1771.3453   -7165.0561   -1468.0493    40.715587    67496.631    320.31885   0.78829102   -6546.4482 
   40000        79970     298.1566   -5810.5961   -7587.2037    1776.6076   -6120.3937     -1466.81    40.587915    66863.673     802.8138   0.79575329   -5027.7418 
   41000        81970    297.96157   -8001.0336   -9776.4792    1775.4455   -8237.2411   -1539.2381    40.702523    67431.681   -457.21594   0.78905029   -8450.6698 
   42000        83970      307.664   -9985.7276   -11818.986    1833.2588   -10295.107   -1523.8798    40.573354    66791.738   -906.05393   0.79661033   -10868.305 
   43000        85970    298.04242   -8473.8024    -10249.73    1775.9273   -8726.0906   -1523.6391    40.528063    66568.311   -226.19272   0.79928403   -8693.3972 
   44000        87970    296.80665   -8515.7433   -10284.307    1768.5638   -8800.3822   -1483.9249    40.555485    66703.528   -180.49189   0.79766377   -8691.3263 
   45000        89970    296.60622   -10375.812   -12143.182    1767.3695   -10638.642   -1504.5399    40.630983    67076.745   -1064.8915   0.79322555   -11417.538 
   46000        91970    301.69718   -8587.5094   -10385.214    1797.7047   -8953.8232    -1431.391    40.668763    67264.032   -125.33546   0.79101693   -8710.4606 
   47000        93970     300.1944   -8183.1491   -9971.8993    1788.7502   -8476.3311   -1495.5682     40.58523    66850.403   -153.03282   0.79591126   -8332.3476 
   48000        95970    307.47265   -6826.8178   -8658.9364    1832.1186   -7138.1528   -1520.7836    40.558118    66716.522    291.56843   0.79750842   -6543.1241 
   49000        97970    292.61899   -9164.6136   -10908.225     1743.611   -9445.1342   -1463.0904    40.642439    67133.502   -449.55322   0.79255493   -9604.7591 
   50000        99970    294.32767   -7643.9561   -9397.7485    1753.7924   -7929.9619   -1467.7865    40.647057    67156.386    5.8250994   0.79228487   -7638.2509 
   51000       101970    305.77264    -7251.022   -9073.0108    1821.9888   -7590.8533   -1482.1575    40.600467    66925.725    169.16596    0.7950155   -7085.9087 
   52000       103970    300.32494   -8248.1211   -10037.649     1789.528   -8519.4271    -1518.222    40.565361    66752.271   -256.53729   0.79708132   -8497.8636 
   53000       105970    305.78124   -5303.4237   -7125.4638    1822.0401   -5664.5426   -1460.9213    40.601815    66932.392    935.81846    0.7949363   -4389.9336 
   54000       107970    291.21519   -8082.8038   -9818.0501    1735.2463   -8358.0988   -1459.9513    40.672924     67284.68   -29.413315   0.79077419   -8111.6665 
   55000       109970    295.71929   -10533.716   -12295.801    1762.0846   -10886.586   -1409.2152    40.670559    67272.944   -647.69398   0.79091214   -11169.173 
   56000       111970    297.75117   -7474.4425   -9248.6344    1774.1918   -7715.4856   -1533.1487    40.642612    67134.358   -137.23957   0.79254483   -7608.8118 
   57000       113970    304.31197   -9261.1617   -11074.447    1813.2852   -9544.4526   -1529.9943    40.554962    66700.946   -736.10884   0.79769465   -9977.2225 
   58000       115970    297.27205   -6262.0585   -8033.3954    1771.3369   -6540.7047   -1492.6907    40.540743    66630.812    465.43136   0.79853429   -5809.7792 
   59000       117970    290.24828   -4848.4851   -6577.9699    1729.4848   -5132.9452   -1445.0248    40.470631    66285.713     1341.084   0.80269165    -3552.047 
   60000       119970    295.20427   -9313.7566   -11072.772    1759.0157   -9567.9992   -1504.7731    40.567454    66762.601   -671.43926   0.79695799   -9967.5129 
   61000       121970    295.92254   -7511.2873    -9274.583    1763.2957   -7825.8308   -1448.7522     40.51346    66496.382    354.26938   0.80014862   -7167.7234 
   62000       123970    306.23121   -7715.4424   -9540.1638    1824.7213   -8097.5134   -1442.6504    40.546992    66661.629    273.69769   0.79816513   -7449.3558 
   63000       125970    289.58225   -8980.8333   -10706.349    1725.5162   -9202.1265   -1504.2229    40.567196    66761.328   -601.44753   0.79697318   -9566.4299 
   64000       127970    298.38249   -9834.8761    -11612.83    1777.9536   -10140.114   -1472.7161    40.476338    66313.761   -491.38756   0.80235215   -10310.106 
   65000       129970    301.07724   -7048.7086   -8842.7193    1794.0107   -7288.5382   -1554.1811    40.459887    66232.936    36.987056   0.80333126   -7012.9814 
   66000       131970    300.99898   -9468.6187   -11262.163    1793.5444    -9867.894   -1394.2691      40.4323    66097.545    170.74488   0.80497677   -9304.0267 
   67000       133970     294.8757   -9398.7608   -11155.819    1757.0579   -9680.7786   -1475.0401    40.508904    66473.948   -450.87955   0.80041865   -9835.8679 
   68000       135970    297.59752   -10296.123   -12069.399    1773.2763   -10603.644   -1465.7549    40.523269    66544.694    -694.1945    0.7995677   -10969.829 
   69000       137970    299.13371   -5015.0192   -6797.4491    1782.4299   -5337.3424   -1460.1067    40.396211    65920.713    1428.2736   0.80713611    -3641.897 
   70000       139970    297.20327   -5950.1622   -7721.0893    1770.9271   -6286.1496   -1434.9397    40.468398    66274.741     916.9202   0.80282453   -5063.9138 
   71000       141970    291.35542   -7678.9645   -9415.0464    1736.0819    -7921.096   -1493.9503    40.411894     65997.52    227.70742   0.80619678   -7459.7947 
   72000       143970    303.65024   -6261.5407   -8070.8829    1809.3422    -6595.458   -1475.4249    40.435817    66114.797    839.04876   0.80476672    -5452.516 
   73000       145970    311.77097   -7619.6025   -9477.3333    1857.7308   -7943.5451   -1533.7882    40.436708    66119.166    35.551336   0.80471354   -7585.3211 
   74000       147970    308.22181   -6998.3134    -8834.896    1836.5826     -7309.85    -1525.046    40.365424    65770.111    387.44129   0.80898432   -6626.6838 
   75000       149970    310.88743   -6490.6676   -8343.1336    1852.4661   -6903.6323   -1439.5013    40.382666    65854.424    1019.3016   0.80794858   -5511.7107 
   76000       151970    292.52866   -8141.4212   -9884.4939    1743.0727   -8399.6675   -1484.8264    40.390944    65894.931    171.83023   0.80745191   -7976.2906 
   77000       153970    300.56849   -10733.485   -12524.464    1790.9792   -11001.478   -1522.9857    40.450111    66184.936   -999.84371   0.80391387   -11698.573 
   78000       155970    301.03075   -7127.1332   -8920.8668    1793.7337   -7434.5978   -1486.2691    40.430315    66087.811    470.01161   0.80509533   -6674.1252 
   79000       157970     294.1664   -7360.2525    -9113.084    1752.8315   -7569.2516   -1543.8324    40.400745    65942.914    34.063559   0.80686438   -7327.4933 
   80000       159970    304.91457   -8377.2199   -10194.096     1816.876   -8686.5621   -1507.5337    40.468847    66276.948   -43.585916    0.8027978   -8419.3492 
   81000       161970     307.3037   -8606.4188   -10437.531    1831.1119   -8943.8124   -1493.7184    40.401039    65944.354   -116.71432   0.80684676   -8718.6665 
   82000       163970    305.09944   -6018.6346   -7836.6121    1817.9775    -6284.434   -1552.1781    40.536395    66609.376    316.61373   0.79879127   -5711.0667 
   83000       165970    290.43675   -8078.5328   -9809.1406    1730.6078   -8304.8385   -1504.3022    40.465849     66262.22   -32.013731   0.80297623   -8109.4698 
   84000       167970    292.29936   -7319.9703   -9061.6768    1741.7064   -7588.1388    -1473.538    40.459136    66229.245    299.96264   0.80337604   -7030.2408 
   85000       169970    304.34601   -8207.4785   -10020.967    1813.4881   -8614.0663   -1406.9003    40.452031     66194.36     479.1967   0.80379942   -7744.8731 
   86000       171970    294.93932   -8955.2788   -10712.716     1757.437   -9170.2309   -1542.4849    40.518609    66521.737   -624.36079   0.79984364   -9561.0032 
   87000       173970    298.45388   -8932.6622   -10711.041     1778.379   -9214.6031   -1496.4381    40.449368    66181.288   -462.84033   0.80395819   -9379.3893 
   88000       175970    312.49894   -7058.7105   -8920.7789    1862.0684   -7439.3681   -1481.4108    40.455648    66212.116    434.66754   0.80358386   -6638.9799 
   89000       177970    301.07305   -10191.935   -11985.921    1793.9857   -10471.475   -1514.4463    40.481618    66339.713   -951.70745   0.80203826   -11112.709 
   90000       179970    290.08176   -8062.8325   -9791.3251    1728.4926   -8239.9047   -1551.4204    40.454137      66204.7   -222.90089   0.80367388   -8278.0495 
   91000       181970    300.41274   -9226.8156   -11016.867    1790.0512    -9576.129   -1440.7378    40.499528    66427.803   -293.94853   0.80097468   -9511.5875 
   92000       183970    303.37997   -8530.4878    -10338.22    1807.7318    -8728.433   -1609.7867    40.412597    66000.962    -687.3834   0.80615474   -9192.1331 
   93000       185970    299.44098    -9203.312   -10987.573    1784.2608    -9476.311   -1511.2618    40.479487    66329.238    -576.4055   0.80216492   -9760.8943 
   94000       187970    299.99512   -7303.4873     -9091.05    1787.5627   -7564.6102   -1526.4398     40.47907    66327.187   -18.344314   0.80218972    -7321.232 
   95000       189970    299.24597    -6640.194   -8423.2928    1783.0988   -6903.8542   -1519.4386    40.456384    66215.733    351.77378   0.80353997   -6300.4901 
   96000       191970    292.66573   -6669.5662   -8413.4557    1743.8895   -6909.4352   -1504.0205    40.495924    66410.068    404.34254   0.80118858   -6277.9513 
   97000       193970    307.94694   -7399.1971   -9234.1419    1834.9447   -7732.8833   -1501.2585    40.462825    66247.364    115.54005   0.80315631   -7287.5681 
   98000       195970    312.07347   -7643.8639   -9503.3971    1859.5332   -7976.2175   -1527.1796    40.481126    66337.296   -130.61889   0.80206749   -7770.2326 
   99000       197970    303.14344   -5925.9458   -7732.2682    1806.3224   -6233.8301   -1498.4381    40.488329     66372.71    604.51765   0.80163953   -5340.7861 
  100000       199970    300.55673   -9767.4527   -11558.362    1790.9091   -9998.2564   -1560.1054    40.512615    66492.218   -1120.8828   0.80019873   -10854.396 
  101000       201970    294.59139   -10206.267   -11961.631    1755.3638   -10399.072   -1562.5591    40.541411    66634.106   -1228.6458   0.79849481   -11400.253 
  102000       203970    293.66211   -7913.3646   -9663.1911    1749.8266   -8129.3893   -1533.8018    40.526332    66559.783   -330.83324   0.79938644   -8234.5064 
  103000       205970    304.76632   -7277.1528   -9093.1454    1815.9926   -7592.6468   -1500.4985    40.470259    66283.884    48.081248   0.80271379   -7230.6735 
  104000       207970    302.77527    -7067.882   -8872.0107    1804.1286   -7406.2811   -1465.7296    40.431428    66093.271    426.19097   0.80502882   -6657.0754 
  105000       209970    304.64714   -9361.4814   -11176.764    1815.2824   -9664.3577   -1512.4062    40.478067    66322.256    -619.5725   0.80224937    -9960.758 
  106000       211970    298.56413   -6866.2679   -8645.3039     1779.036   -7150.1991   -1495.1048    40.473219    66298.429    263.23665   0.80253769   -6611.7458 
  107000       213970    290.84085   -7569.3293   -9302.3451    1733.0157   -7771.8142   -1530.5309    40.506374    66461.496    -198.9987   0.80056861   -7762.2133 
  108000       215970    306.96149   -10667.682   -12496.755    1829.0728   -11010.296   -1486.4588     40.51082    66483.382   -969.82156   0.80030508   -11608.013 
  109000       217970    306.13409   -9219.0697   -11043.212    1824.1426    -9541.857   -1501.3553    40.438252    66126.741   -657.42275   0.80462136    -9853.082 
  110000       219970     297.7736   -5395.2187   -7169.5442    1774.3255   -5768.1468   -1401.3974    40.358931    65738.376    1428.0722   0.80937485   -4026.0876 
  111000       221970    302.43232   -6037.6166   -7839.7018    1802.0851    -6344.242   -1495.4598    40.462999     66248.22    610.61594   0.80314593   -5447.6625 
  112000       223970    310.65905   -7754.6152   -9605.7204    1851.1052   -8063.1945   -1542.5259    40.383251    65857.286   -143.40694   0.80791347   -7892.3519 
  113000       225970    299.09512   -6884.3357   -8666.5356    1782.1999   -7211.7348   -1454.8009     40.38613    65871.374    652.78522   0.80774068   -6257.2268 
  114000       227970    302.85801   -9652.5766   -11457.198    1804.6217   -9939.5711   -1517.6271    40.483723    66350.065   -747.00061   0.80191313    -10375.41 
  115000       229970    296.75163   -9349.6742    -11117.91    1768.2359   -9590.2256   -1527.6846    40.390283    65891.698   -685.51265   0.80749153   -10008.426 
  116000       231970    303.47786   -7714.2206   -9522.5357    1808.3151   -7996.3902   -1526.1455    40.340371    65647.724     57.77141   0.81049251     -7658.91 
  117000       233970     308.2628   -9726.0318   -11562.859    1836.8268   -10041.782   -1521.0768    40.399357    65936.116   -715.38761   0.80694756   -10413.956 
  118000       235970    298.52654    -10276.73   -12055.542     1778.812   -10561.909   -1493.6338    40.476889    66316.464   -959.80078   0.80231944   -11205.009 
  119000       237970    296.78976   -8142.4379    -9910.901    1768.4631   -8398.2031    -1512.698    40.385804    65869.779   -202.74806   0.80776023   -8337.2065 
  120000       239970    307.42155   -8571.3287   -10403.143    1831.8141    -8862.803   -1540.3399    40.314275    65520.403    -317.8244   0.81206747   -8875.0251 
  121000       241970     301.3299   -7629.0345   -9424.5507    1795.5162   -7907.2429   -1517.3078    40.394633    65912.987   -26.851175   0.80723072   -7654.8458 
  122000       243970    297.89131   -7694.3559   -9469.3827    1775.0268   -7884.9061   -1584.4767    40.305888    65479.518   -235.77234   0.81257453   -7919.5071 
  123000       245970    296.79299   -9695.7653   -11464.248    1768.4824   -9946.9833   -1517.2643     40.33861    65639.124   -601.71681   0.81059869   -10271.776 
  124000       247970    295.02557   -8006.1807   -9764.1316     1757.951   -8288.0627   -1476.0689    40.348578    65687.799    139.59263   0.80999803   -7872.4524 
  125000       249970    297.19871   -8388.7511   -10159.651    1770.8999   -8612.2115   -1547.4395    40.352802     65708.43   -262.54744   0.80974372   -8640.3477 
  126000       251970    303.69759   -10110.176     -11919.8    1809.6244   -10441.171   -1478.6291    40.374989    65816.876   -564.20611   0.80840951   -10651.741 
  127000       253970     297.0716   -8072.3985    -9842.541    1770.1425   -8329.7145   -1512.8265    40.397837    65928.675   -178.85074   0.80703864   -8244.3639 
  128000       255970    296.53245   -9410.0349   -11176.965    1766.9299   -9637.5585   -1539.4063      40.3725    65804.703   -763.58831   0.80855905   -10142.846 
  129000       257970    310.50181   -7429.4909   -9279.6592    1850.1683   -7828.6169   -1451.0424    40.359656    65741.917     356.4404   0.80933126   -7087.7436 
  130000       259970    291.44342   -8677.6542    -10414.26    1736.6062   -8955.4432   -1458.8172    40.411698    65996.561   -1.6507948    0.8062085   -8679.2431 
  131000       261970    302.99731    -8637.421   -10442.873    1805.4517   -8950.2654   -1492.6072    40.366618    65775.943   -169.37175   0.80891258    -8799.895 
  132000       263970    302.90197    -7288.524   -9093.4075    1804.8836   -7611.1888   -1482.2188    40.406074    65969.009    315.10432   0.80654521   -6985.3651 
  133000       265970    299.47533   -8689.8324   -10474.298    1784.4654   -9035.7253   -1438.5725    40.367533     65780.42    42.240367   0.80885753   -8649.3095 
  134000       267970    296.92167   -8950.0216   -10719.271    1769.2492   -9149.0978   -1570.1729     40.40414    65959.537    -773.2352   0.80666103   -9693.8369 
  135000       269970    294.76324   -8587.5456   -10343.933    1756.3878   -8874.1947   -1469.7387    40.424665    66060.111   -177.95339   0.80543292   -8758.9893 
  136000       271970    305.78149   -10533.191   -12355.233    1822.0416   -10856.119   -1499.1139     40.33093     65601.64   -828.15505   0.81106186   -11325.514 
  137000       273970    303.52465   -8030.7363   -9839.3302    1808.5939   -8366.8744   -1472.4558    40.360911    65748.052    172.99355   0.80925573   -7864.8584 
  138000       275970    303.19379   -8727.4481   -10534.071    1806.6225   -9063.0973   -1470.9733    40.508121    66470.095   -382.64075   0.80046505   -9098.3793 
  139000       277970    296.05228   -9341.0197   -11105.088    1764.0687   -9634.1932   -1470.8951    40.432048    66096.312   -417.50541   0.80499178   -9743.4727 
  140000       279970    306.04803   -7044.9177   -8868.5475    1823.6298   -7399.9147   -1468.6328    40.376977    65826.599    462.78859    0.8082901   -6600.6344 
  141000       281970    298.62739    -9202.897    -10982.31    1779.4129   -9399.2656   -1583.0443    40.374134    65812.691   -813.36941   0.80846091   -9983.5775 
  142000       283970    304.18212   -8263.5198   -10076.031    1812.5115   -8574.4173    -1501.614    40.430747    66089.931   -183.78628   0.80506951   -8440.6629 
  143000       285970    294.61264   -8976.3336   -10731.824    1755.4905   -9213.8234   -1518.0007    40.300214    65451.871   -260.66945   0.81291776   -9225.1552 
  144000       287970    303.76486   -8333.7283   -10143.754    1810.0252   -8688.6366   -1455.1169     40.31584    65528.033    163.21475   0.81197291   -8177.7507 
  145000       289970    295.67056   -9210.2546   -10972.049    1761.7942   -9536.1752   -1435.8736    40.318501    65541.011    72.416243   0.81181214   -9141.0357 
  146000       291970    294.17526   -7365.5193   -9118.4035    1752.8842   -7631.9824   -1486.4211    40.325218    65573.772     369.9154   0.81140654   -7011.7595 
  147000       293970    306.94386   -7599.3654   -9428.3332    1828.9678    -7924.928   -1503.4051    40.277809    65342.764    343.98004   0.81427513   -7271.5671 
  148000       295970    298.74054   -7516.8504   -9296.9375    1780.0871   -7809.2615   -1487.6761    40.263795    65274.583    427.78873   0.81512567   -7109.6115 
  149000       297970    304.34569   -10647.218   -12460.704    1813.4862   -11034.805   -1425.8985    40.217632    65050.326   -237.29973   0.81793576   -10872.342 
  150000       299970    298.29504    -8706.205   -10483.638    1777.4326   -8922.3284   -1561.3091    40.268455    65297.252   -477.24439   0.81484268   -9160.6817 
  151000       301970     294.6762   -8658.1129   -10413.982    1755.8692   -8886.9032    -1527.079    40.262091    65266.298    -264.2436   0.81522914   -8909.6311 
  152000       303970    296.91464   -9103.3994   -10872.607    1769.2072   -9308.0873   -1564.5193    40.259933    65255.806   -577.05992   0.81536022    -9652.581 
  153000       305970    305.96078    -7930.004   -9753.1139    1823.1099   -8253.4236   -1499.6903    40.242108    65169.168    296.77364   0.81644418   -7647.9428 
  154000       307970    299.58785   -9336.7346   -11121.871     1785.136   -9617.9217   -1503.9488    40.255355    65233.545   -216.50536   0.81563846     -9542.71 
  155000       309970     294.0351   -9110.6358   -10862.685    1752.0491   -9318.2442   -1544.4408     40.24801    65197.846   -375.13717   0.81608506   -9467.3327 
  156000       311970    295.70738    -9600.504   -11362.518    1762.0136   -9845.4739   -1517.0437    40.263698    65274.115   -439.20969   0.81513151   -10018.612 
  157000       313970    296.62958   -8251.9845   -10019.493    1767.5087   -8539.3367   -1480.1565    40.224749    65084.866    250.58576    0.8175017   -8014.1295 
  158000       315970     297.5329   -7914.2717   -9687.1629    1772.8912   -8212.1265   -1475.0365    40.217936    65051.803    391.33983    0.8179172   -7543.0022 
  159000       317970    295.61272   -8649.7007    -10411.15    1761.4495   -8926.2615   -1484.8887    40.216047    65042.639    186.10259   0.81803244   -8473.1675 
  160000       319970    307.58096   -6858.2425   -8691.0065     1832.764   -7247.7022   -1443.3043    40.316054    65529.077    734.11223   0.81195999   -6156.6702 
  161000       321970    300.03121    -7314.993   -9102.7707    1787.7778   -7593.1072   -1509.6635    40.249224    65203.745     325.5728   0.81601122   -7005.3961 
  162000       323970    299.29081   -7038.8377   -8822.2037     1783.366   -7338.3421   -1483.8617    40.231919    65119.676    477.35579    0.8170647   -6585.4912 
  163000       325970    304.11155   -6866.2505   -8678.3415     1812.091    -7152.873   -1525.4686    40.277619    65341.841    422.08367   0.81428664   -6464.0285 
  164000       327970    296.57921   -11093.172   -12860.381    1767.2085   -11369.347   -1491.0334    40.336253    65627.618   -894.17431   0.81074081   -11948.997 
  165000       329970    294.27563   -7325.7301   -9079.2125    1753.4823   -7531.7885    -1547.424    40.275027    65329.225    139.31911   0.81444389   -7192.9925 
  166000       331970    298.44408   -7070.1389   -8848.4595    1778.3206   -7367.3731   -1481.0864    40.278253    65344.928    615.83603   0.81424818   -6483.2541 
  167000       333970    302.88902   -10515.119   -12319.925    1804.8064   -10817.539   -1502.3861    40.241231    65164.905   -681.50844   0.81649759     -11162.8 
  168000       335970    299.81261     -10964.3   -12750.775    1786.4752    -11160.56   -1590.2152    40.232421    65122.117   -1250.7335   0.81703407    -12152.17 
  169000       337970    301.33982   -7591.2975   -9386.8728    1795.5753   -7890.7902   -1496.0826    40.204968    64988.896    508.31936   0.81870891   -7109.5142 
  170000       339970    299.31575   -11469.696    -13253.21    1783.5146   -11786.564   -1466.6466    40.265174    65281.293   -772.46185   0.81504188   -12205.126 
  171000       341970    305.16978     -7103.16   -8921.5566    1818.3966   -7483.4203   -1438.1364    40.193671     64934.13    971.12108   0.81939942   -6183.5106 
  172000       343970    303.46726   -8394.4768   -10202.729     1808.252   -8712.5628   -1490.1659    40.228195    65101.595    229.05435   0.81729162   -8177.0034 
  173000       345970    297.59665   -6428.6086   -8201.8796    1773.2711   -6675.7593   -1526.1203    40.218483    65054.455    797.76124   0.81788385   -5671.7306 
  174000       347970    299.41116   -8451.2698   -10235.353    1784.0831   -8731.5183   -1503.8345    40.151781    64731.319      268.726   0.82196669   -8197.5817 
  175000       349970     285.9816   -7304.7255   -9008.7867    1704.0612   -7459.2728   -1549.5139    40.183445    64884.578    387.03965   0.82002518   -6938.4796 
  176000       351970     300.5114    -9949.486   -11740.125     1790.639   -10212.473   -1527.6524    40.224709    65084.674    -501.1666    0.8175041    -10425.19 
  177000       353970    300.59963   -7510.9717   -9302.1364    1791.1648   -7803.4014    -1498.735    40.229483    65107.851    450.92296   0.81721309   -7082.8062 
  178000       355970    297.27234   -11656.858   -13428.197    1771.3386   -11865.837   -1562.3593    40.215049    65037.792    -1203.387   0.81809339   -12798.282 
  179000       357970    300.41419   -7137.8879   -8927.9477    1790.0598   -7390.0514   -1537.8963    40.195687      64943.9    484.64848   0.81927614   -6678.8578 
  180000       359970    293.41089   -9212.6392   -10960.969    1748.3297    -9455.026   -1505.9429     40.26877    65298.786   -279.35233   0.81482354   -9478.6709 
  181000       361970    298.46021   -9480.3741   -11258.791    1778.4167   -9826.5207   -1432.2701    40.272115    65315.056   -111.92643   0.81462058     -9586.99 
  182000       363970    309.15319   -8347.0788   -10189.211    1842.1324    -8636.101   -1553.1103    40.286768     65386.38   -196.80748   0.81373198   -8534.7531 
  183000       365970    299.56659   -8496.8838   -10281.893    1785.0093   -8715.2191    -1566.674    40.307346    65486.624   -452.95555   0.81248635   -8929.4814 
  184000       367970    305.32296   -6986.7311   -8806.0404    1819.3094   -7300.1743   -1505.8662    40.293734    65420.303    526.73132   0.81331003    -6484.183 
  185000       369970    308.99737   -9492.7452   -11333.949    1841.2039     -9843.25   -1490.6991    40.281651    65361.467   -191.26592   0.81404213   -9675.0656 
  186000       371970    300.11013   -8762.4629   -10550.711     1788.248   -8962.9729   -1587.7379    40.236123    65140.094   -485.38442   0.81680858   -9223.5788 
  187000       373970    298.01014   -8359.1396   -10134.875     1775.735   -8609.7958   -1525.0788    40.229678    65108.797    65.412164   0.81720122   -8297.0278 
  188000       375970    305.92257   -8134.4583   -9957.3406    1822.8823   -8403.5605   -1553.7801    40.227581    65098.618   -31.882556     0.817329   -8164.7275 
  189000       377970    286.36434    -8665.543   -10371.885    1706.3418    -8831.616   -1540.2688    40.200968      64969.5    19.376189   0.81895332   -8647.1838 
  190000       379970    305.12506   -6373.3945   -8191.5247    1818.1302   -6651.8287   -1539.6959    40.284662    65376.124    528.41678   0.81385963   -5869.5788 
  191000       381970    295.01692   -8414.0479   -10171.947    1757.8994     -8669.97   -1501.9773    40.341219    65651.863    37.765016   0.81044141   -8377.8892 
  192000       383970     288.1457   -11536.055   -13253.011    1716.9563   -11723.578   -1529.4337    40.338583    65638.996   -1351.4102   0.81060028   -12829.729 
  193000       385970    307.24998   -7013.1585   -8843.9503    1830.7918   -7376.3149   -1467.6354    40.309637    65497.793    699.70476    0.8123478   -6344.7878 
  194000       387970    298.64161   -9842.2627    -11621.76    1779.4976   -10164.593   -1457.1677    40.370783    65796.308   -251.22893   0.80866221   -10083.335 
  195000       389970     300.3233   -10534.943   -12324.461    1789.5182   -10772.713   -1551.7487    40.359498    65741.146   -1043.2546   0.80934075   -11535.181 
  196000       391970    302.84918   -6846.3997   -8650.9687     1804.569   -7140.6357    -1510.333    40.242066    65168.964    634.10594   0.81644673   -6243.7312 
  197000       393970     302.0381    -8502.768   -10302.504    1799.7361   -8820.4915   -1482.0127    40.264652    65278.754    183.39309   0.81507358   -8328.1735 
  198000       395970    296.63128   -9226.8843   -10994.403    1767.5188    -9495.106   -1499.2971    40.330417    65599.136   -357.50802   0.81109281   -9568.9108 
  199000       397970    300.00967   -8585.4897   -10373.139    1787.6494   -8845.3308   -1527.8082    40.398502    65931.929   -301.51655    0.8069988   -8875.4128 
  200000       399970    300.65725   -6438.5337   -8230.0418    1791.5081   -6706.0357   -1524.0061    40.337838    65635.358    525.49368    0.8106452   -5935.5183 
  201000       401970     300.3517   -8904.9075   -10694.595    1789.6874   -9157.0316   -1537.5633    40.373083    65807.555   -373.53786   0.80852401   -9263.4051 
  202000       403970    302.21486   -9696.7883   -11497.578    1800.7893   -9966.5181   -1531.0595    40.251666    65215.612   -475.14362   0.81586274   -10148.699 
  203000       405970    315.98434   -7397.7659   -9280.6026    1882.8367   -7738.1983   -1542.4043    40.252107    65217.758    333.25103    0.8158359   -7080.7994 
  204000       407970    299.64141   -8655.9538   -10441.409    1785.4551   -8934.3416   -1507.0673    40.237199    65145.321    111.90822   0.81674305   -8549.6323 
  205000       409970    295.38438   -8299.3153   -10059.404     1760.089   -8566.2081   -1493.1962    40.347801    65684.004    50.412468   0.81004484   -8251.0235 
  206000       411970     302.5239   -10549.013   -12351.644    1802.6308   -10780.116   -1571.5277    40.282048    65363.399   -1099.8894   0.81401807   -11597.491 
  207000       413970    297.12385   -10701.898   -12472.352    1770.4538   -10952.876   -1519.4761    40.238838     65153.28   -722.51613   0.81664327   -11388.429 
  208000       415970    297.11892    -9861.635   -11632.059    1770.4245   -10151.028   -1481.0312    40.203042    64979.556   -62.970465   0.81882659   -9921.3096 
  209000       417970    300.03121    -7418.102   -9205.8798    1787.7777   -7738.1781   -1467.7017    40.231389    65117.105    777.51271   0.81709695   -6679.7245 
  210000       419970    309.11173   -7604.1869   -9446.0723    1841.8853   -7883.0731   -1562.9992    40.210358     65015.04    109.67279   0.81837969   -7500.1976 
  211000       421970    296.96096   -9243.0223   -11012.506    1769.4832   -9517.2057   -1495.2998    40.269474    65302.208    -64.00602   0.81478084   -9303.9794 
  212000       423970    300.46319   -11575.384   -13365.736    1790.3518     -11859.6    -1506.136     40.32967    65595.493   -1237.3575   0.81113786   -12759.093 
  213000       425970    301.20252   -6100.0913   -7894.8485    1794.7572   -6380.0554    -1514.793    40.242851    65172.775    876.11119   0.81639899   -5267.3668 
  214000       427970    311.66357   -8811.2377   -10668.329    1857.0908   -9165.7593   -1502.5692    40.364248    65764.361   -241.25925   0.80905504   -9042.6308 
  215000       429970    300.82741   -7755.1716   -9547.6937     1792.522   -8101.9018   -1445.7918    40.351075    65699.994    430.82307   0.80984768   -7342.3712 
  216000       431970    297.96507   -8335.9773   -10111.444    1775.4664   -8556.9275   -1554.5162     40.40228    65950.427   -392.71558   0.80677246   -8713.6987 
  217000       433970    295.47387   -8447.8489   -10208.471    1760.6222   -8683.7881   -1524.6831    40.320002    65548.331   -119.04862   0.81172148   -8561.6541 
  218000       435970    299.36458   -7764.0843   -9547.8898    1783.8056   -8009.6801   -1538.2097    40.329081    65592.621    -15.60363   0.81117338   -7779.0107 
  219000       437970    296.91039   -7983.4547   -9752.6366    1769.1819   -8223.3401   -1529.2966    40.219476    65059.275    159.35096   0.81782326   -7832.2589 
  220000       439970    300.77419   -9629.5942   -11421.799    1792.2049    -9911.599   -1510.2001    40.247774    65196.697   -255.13993   0.81609944   -9872.1881 
  221000       441970      296.278   -4202.6489   -5968.0626    1765.4138   -4420.1589   -1547.9037    40.177841    64857.438    1470.6208   0.82036833   -2811.6192 
  222000       443970    307.64609   -8191.2657   -10024.418    1833.1521    -8555.983   -1468.4348    40.217602    65050.182    462.90626   0.81793758    -7752.111 
  223000       445970    310.69527   -7065.1588   -8916.4798     1851.321   -7386.1429   -1530.3368      40.1931    64931.361    501.37532   0.81943435   -6590.3777 
  224000       447970     296.0947   -7647.3394   -9411.6609    1764.3215   -7840.1103   -1571.5506    40.255582     65234.65    151.24538   0.81562464   -7503.4475 
  225000       449970    299.04038   -8597.7604   -10379.634    1781.8738   -8841.2377   -1538.3964    40.263171    65271.548   -98.812635   0.81516357    -8691.822 
  226000       451970    295.43763   -9148.3541    -10908.76    1760.4062   -9365.1479   -1543.6124    40.224652      65084.4   -270.31279   0.81750755   -9404.9321 
  227000       453970    303.91937   -10614.464    -12425.41    1810.9459   -10862.164   -1563.2455    40.320691     65551.69   -1090.4013   0.81167988   -11656.892 
  228000       455970    305.44982    -8299.535     -10119.6    1820.0653   -8506.7744   -1612.8259    40.276953    65338.601   -357.97831   0.81432702   -8640.6513 
  229000       457970    305.53707   -7408.0882   -9228.6733    1820.5852   -7687.3186   -1541.3547    40.225212    65087.115    312.76166   0.81747344   -7111.2058 
  230000       459970     300.3529   -7641.6977   -9431.3923    1789.6946   -7902.8103    -1528.582    40.241766    65167.507    297.37631   0.81646499   -7359.0709 
  231000       461970    295.77687   -10764.499   -12526.926    1762.4277   -10953.933    -1572.993    40.216013    65042.473   -1045.6348   0.81803452   -11756.364 
  232000       463970    301.26572   -7768.8896   -9564.0233    1795.1337    -8012.063   -1551.9603    40.177207    64854.369    238.75838   0.82040716   -7543.0637 
  233000       465970    295.22467   -8657.6693   -10416.807    1759.1373    -8917.886   -1498.9206    40.184215    64888.309    248.15732   0.81997804   -8422.8308 
  234000       467970    296.29241   -11863.896   -13629.396    1765.4996   -12093.316   -1536.0799    40.240591    65161.797   -1142.5615   0.81653654   -12949.693 
  235000       469970    298.65775   -8954.1049   -10733.699    1779.5938   -9199.3336   -1534.3651     40.13965    64672.662   -74.837471    0.8227122   -9024.6905 
  236000       471970    297.34855   -7273.9165   -9045.7092    1771.7928   -7504.1877   -1541.5215    40.143898      64693.2    622.98101   0.82245101   -6686.1439 
  237000       473970    307.40941    -9181.741   -11013.483    1831.7418   -9446.8532   -1566.6296    40.225487    65088.453   -436.46293   0.81745665   -9596.0527 
  238000       475970    304.99691   -6886.8844    -8704.251    1817.3666   -7092.9708   -1611.2801    40.138226    64665.782    363.36305   0.82279973   -6544.2025 
  239000       477970    299.48532    -7967.865     -9752.39     1784.525    -8211.644    -1540.746     40.17137    64826.106    251.17209   0.82076484   -7730.4013 
  240000       479970    293.22802   -8601.9954   -10349.235      1747.24   -8802.2152   -1547.0202    40.223911    65080.801   -110.42596   0.81755276   -8706.8048 
  241000       481970    299.60386   -8055.6168   -9840.8481    1785.2313   -8312.3178   -1528.5303    40.302983    65465.363    111.41571   0.81275022   -7949.2432 
  242000       483970     294.2707   -9550.7607   -11304.214     1753.453    -9780.417   -1523.7967    40.315402    65525.897   -504.76616   0.81199938   -10033.129 
  243000       485970    294.63644   -6580.5217    -8336.154    1755.6323   -6790.9224   -1545.2316    40.324288    65569.235    397.63988    0.8114627   -6200.2746 
  244000       487970    300.42818   -6648.1135   -8438.2566    1790.1432   -6983.7721   -1454.4845     40.26098    65260.896    901.69167   0.81529662   -5789.9165 
  245000       489970    295.27031    -5706.417   -7465.8262    1759.4093   -5968.6125   -1497.2138    40.207156    64999.507    1260.1445   0.81857526   -4511.8616 
  246000       491970    287.24159   -6778.1599   -8489.7289     1711.569   -6969.7454   -1519.9836    40.319494    65545.851    489.78388   0.81175218   -6309.9662 
  247000       493970    300.42729   -5420.0369   -7210.1748    1790.1379   -5705.0875   -1505.0873    40.272179     65315.37    968.36337   0.81461665    -4497.615 
  248000       495970    303.48425   -7134.4937   -8942.8469    1808.3532   -7342.7813   -1600.0656    40.309503    65497.137    35.398638   0.81235594   -7100.6806 
  249000       497970    297.21543   -7315.5288   -9086.5283    1770.9995   -7551.0203    -1535.508    40.245766     65186.94    390.30654   0.81622159   -6944.4704 
  250000       499970    298.23936   -6618.2716   -8395.3724    1777.1008   -6871.1115   -1524.2609     40.26832    65296.596    665.08757   0.81485087   -5984.9194 
  251000       501970    296.32134   -6746.3877   -8512.0597     1765.672   -7040.4999   -1471.5598    40.258778    65250.189    903.52128   0.81543041   -5886.5905 
  252000       503970    305.84408    -8923.824   -10746.239    1822.4145   -9210.0358   -1536.2027    40.328004    65587.363   -259.48647   0.81123841   -9172.0291 
  253000       505970    300.87631   -7954.1796    -9746.993    1792.8134   -8173.4297   -1573.5633    40.262243    65267.036   -5.5437994   0.81521992   -7959.4564 
  254000       507970    300.85695   -6772.8737   -8565.5718     1792.698   -7065.9174   -1499.6543    40.234752    65133.435     782.8944   0.81689209   -6029.1989 
  255000       509970    295.50507   -7414.0034   -9174.8116    1760.8081   -7620.9211   -1553.8904    40.309877    65498.964     114.9311   0.81233328   -7304.2172 
  256000       511970     301.5106   -5855.8074   -7652.4003    1796.5929   -6095.0747   -1557.3257    40.314573    65521.858    549.78678   0.81204945   -5330.4482 
  257000       513970    293.00726   -9800.7017   -11546.626    1745.9246    -10020.52   -1526.1063    40.216809    65046.333   -409.69184   0.81798597   -10189.349 
  258000       515970     303.1484   -8950.1368   -10756.489     1806.352   -9248.3993   -1508.0895    40.230158    65111.128   -133.44911   0.81717196   -9076.8573 
  259000       517970    304.67655   -5843.1506   -7658.6083    1815.4577   -6094.6559   -1563.9524    40.232455     65122.28    661.27515   0.81703202   -5215.1101 
  260000       519970    300.13812   -9615.7742   -11404.189    1788.4148   -9866.8382   -1537.3507    40.309466    65496.961     -606.674   0.81235812   -10195.273 
  261000       521970      304.774   -9588.4106   -11404.449    1816.0384   -9881.8839    -1522.565     40.29565    65429.635    -558.4753   0.81319403   -10121.321 
  262000       523970    282.71103    -7172.364    -8856.937     1684.573   -7313.9993   -1542.9377     40.23862    65152.223    332.58042   0.81665652   -6856.3533 
  263000       525970    288.47526   -9522.8903    -11241.81      1718.92   -9734.7097   -1507.1007    40.274688    65327.577   -273.20132   0.81446443    -9783.179 
  264000       527970    297.21923   -7956.7899    -9727.812    1771.0222   -8193.1572   -1534.6549     40.25954    65253.893    38.816632   0.81538412   -7919.8496 
  265000       529970    297.40438   -8730.5605   -10502.686    1772.1254   -8974.0953   -1528.5907    40.301068    65456.029    -346.9815   0.81286611   -9061.7922 
  266000       531970    292.91671   -7604.1044   -9349.4894     1745.385   -7817.6306   -1531.8588    40.274235    65325.371    187.21266   0.81449194   -7425.7462 
  267000       533970    305.40216   -8659.1282   -10478.909    1819.7813    -8942.017   -1536.8925    40.254626    65230.001   -180.07746   0.81568277   -8830.4381 
  268000       535970     301.9835   -7281.4549   -9080.8656    1799.4107   -7502.6388   -1578.2269    40.223828    65080.398    72.399594   0.81755781   -7212.7382 
  269000       537970    298.38541   -9803.8837   -11581.855     1777.971   -10080.177   -1501.6779    40.223854    65080.526   -366.52153   0.81755621   -10151.761 
  270000       539970     300.8111   -5542.4271    -7334.852    1792.4249   -5810.6343   -1524.2177    40.220631    65064.882    1021.1867   0.81775278   -4573.4184 
  271000       541970    304.50216   -10335.081   -12149.499    1814.4185   -10607.113   -1542.3857    40.297853    65440.365   -931.78261   0.81306069   -11224.356 
  272000       543970    294.28452    -7638.109   -9391.6443    1753.5353   -7838.1239   -1553.5203    40.207953    65003.373    155.38375   0.81852658    -7490.804 
  273000       545970    304.47322   -10509.907   -12324.153    1814.2461   -10749.872   -1574.2807    40.278229    65344.809   -1000.8153   0.81424965   -11463.671 
  274000       547970    300.31665    -7400.892   -9190.3705    1789.4786   -7642.0182   -1548.3524    40.267207    65291.182    217.38481   0.81491844   -7193.8971 
  275000       549970    293.98263   -7288.8255   -9040.5619    1751.7364   -7512.9777   -1527.5842     40.24967     65205.91    447.71136   0.81598413   -6863.0693 
  276000       551970    304.82882    -9476.357   -11292.722     1816.365   -9801.8668   -1490.8553    40.268821    65299.032   -154.20055   0.81482047   -9623.2052 
  277000       553970    295.84254   -8999.3506    -10762.17     1762.819   -9272.3036    -1489.866    40.347845     65684.22   -122.55538   0.81004217    -9116.751 
  278000       555970    301.71018   -7817.4705   -9615.2526    1797.7821   -8102.1655   -1513.0871    40.309807    65498.621    269.37837   0.81233753   -7560.1521 
  279000       557970    297.54741   -8564.4525    -10337.43    1772.9777   -8807.1335   -1530.2966    40.296179     65432.21   -57.365247   0.81316202   -8619.1939 
  280000       559970    297.43057   -8791.5806   -10563.862    1772.2815   -9019.6919   -1544.1702    40.237522    65146.888   -108.69985   0.81672341   -8894.8564 
  281000       561970    302.89173   -9557.2683   -11362.091    1804.8225   -9860.7389   -1501.3519    40.345056    65670.597    -325.2343   0.81021021   -9868.7576 
  282000       563970    303.61619   -7308.3446    -9117.484    1809.1394   -7617.3942   -1500.0898    40.333836    65615.825    466.17917   0.81088653   -6862.2393 
  283000       565970    292.69089   -7259.8033   -9003.8427    1744.0394   -7500.8283   -1503.0144    40.300659    65454.039    331.05423   0.81289082   -6943.7856 
  284000       567970    296.55619   -8090.1437   -9857.2151    1767.0714   -8320.6702   -1536.5448    40.265223    65281.531    56.267346   0.81503891   -8036.5736 
  285000       569970    299.51089   -6377.9942   -8162.6715    1784.6773   -6656.9392   -1505.7323    40.295469    65428.754    760.49366   0.81320497   -5652.3226 
  286000       571970    295.53138   -8365.0895   -10126.054    1760.9649   -8644.1189   -1481.9354    40.290573    65404.906    58.565293   0.81350149   -8309.2262 
  287000       573970    300.83052   -6020.5021   -7813.0427    1792.5406    -6272.886   -1540.1567     40.26171    65264.446    729.87211   0.81525227   -5325.7989 
  288000       575970    300.84783   -9296.3231   -11088.967    1792.6437   -9585.5847   -1503.3822    40.306359    65481.812   -279.17602   0.81254605   -9562.9321 
  289000       577970    298.60359   -4694.8103   -6474.0814    1779.2711   -4926.1205   -1547.9609    40.236518    65142.015    1248.2293    0.8167845   -3508.9557 
  290000       579970    303.80958   -7272.6177   -9082.9094    1810.2917   -7552.5776   -1530.3318    40.230916    65114.808    403.40831   0.81712578   -6889.5279 
  291000       581970    302.32911   -7458.4135   -9259.8837    1801.4701    -7718.005   -1541.8786    40.277672      65342.1    183.55255   0.81428341   -7283.4976 
  292000       583970     304.6638   -7814.7642   -9630.1459    1815.3817   -8064.9382   -1565.2077    40.380919    65845.879   -75.020063   0.80805343   -7886.8056 
  293000       585970    296.99229   -8115.6338   -9885.3038    1769.6699   -8406.2952   -1479.0086    40.271417    65311.663    284.21852   0.81466289   -7844.9147 
  294000       587970    299.30726   -8429.4456    -10212.91     1783.464   -8695.5038   -1517.4058    40.390036    65890.488   -220.84208   0.80750637   -8641.6627 
  295000       589970    299.50108   -7949.5762   -9734.1951    1784.6189   -8235.3137   -1498.8814    40.381238    65847.437    127.22562    0.8080343   -7827.3992 
  296000       591970    299.69132   -9433.7427   -11219.495    1785.7525   -9719.0423   -1500.4529    40.376918    65826.307   -465.70414   0.80829369   -9880.8229 
  297000       593970    303.65636   -8903.7987   -10713.177    1809.3787   -9235.6832   -1477.4943    40.327528    65585.044   -34.956067   0.81126709   -8937.2339 
  298000       595970    310.89284   -9688.1398   -11540.638    1852.4983   -10010.295   -1530.3436    40.337529    65633.847   -681.84807   0.81066386   -10340.806 
  299000       597970    301.39394   -7580.8201   -9376.7178    1795.8978   -7853.5333   -1523.1846    40.295249    65427.682    169.97653    0.8132183   -7418.6292 
  300000       599970    293.91024   -10674.296   -12425.601    1751.3051    -10905.21   -1520.3905    40.273042     65319.57   -851.28571   0.81456427   -11485.246 
  301000       601970    303.60686   -8446.9595   -10256.043    1809.0838   -8785.1248   -1470.9186    40.352914    65708.979    148.98066   0.80973695   -8304.1917 
  302000       603970    292.84212   -7513.8226   -9258.7632    1744.9406   -7717.5601   -1541.2032    40.298328     65442.68    111.28179   0.81303193   -7407.6137 
  303000       605970     305.3825   -8881.7145   -10701.379    1819.6642   -9183.1847   -1518.1939    40.325955    65577.366   -188.43251   0.81136208   -9061.9273 
  304000       607970    290.19837   -8448.0181   -10177.206    1729.1874   -8617.9196    -1559.286     40.25683    65240.717   -163.66927    0.8155488   -8603.7444 
  305000       609970    308.77216   -7275.3369   -9115.1988    1839.8619   -7590.1144   -1525.0844    40.271245    65310.823    462.11998   0.81467337   -6835.1716 
  306000       611970    302.52684   -10447.972    -12250.62    1802.6483   -10740.911   -1509.7094    40.361513    65750.991   -884.97454   0.80921956   -11296.584 
  307000       613970    298.50212   -11486.443   -13265.109    1778.6665   -11709.015   -1556.0946    40.299771    65449.713   -1325.7295   0.81294456   -12751.874 
  308000       615970    304.06094   -6710.2613   -8522.0508    1811.7895    -7007.895   -1514.1558    40.272144    65315.199    686.50684   0.81461879   -6056.3257 
  309000       617970    297.71523   -8897.0729   -10671.051    1773.9777    -9156.201   -1514.8496    40.323816    65566.932   -308.33675    0.8114912   -9191.9126 
  310000       619970    294.76026   -6849.6834   -8606.0535      1756.37   -7033.4095   -1572.6439    40.299667    65449.203    271.97051   0.81295089    -6590.085 
  311000       621970    292.01195   -8927.7387   -10667.733    1739.9939    -9081.384   -1586.3485    40.357506    65731.412   -652.24106   0.80946059   -9552.9934 
  312000       623970    303.13679    -8424.694   -10230.977    1806.2828   -8735.6702   -1495.3067    40.325702    65576.132    121.41107   0.81137735   -8308.5813 
  313000       625970    288.34011   -8221.6843    -9939.799    1718.1147   -8539.2001   -1400.5989    40.261811    65264.937     780.6963   0.81524615   -7478.6002 
  314000       627970    306.36838   -7037.9069   -8863.4456    1825.5387   -7308.4818   -1554.9638    40.330216     65598.16    67.642605   0.81110488   -6973.1945 
  315000       629970    294.46476   -9695.4757   -11450.085    1754.6093   -9937.9824   -1512.1026    40.353862    65713.607    -636.8404   0.80967992   -10305.802 
  316000       631970    299.05803   -8521.6712    -10303.65    1781.9789   -8789.0863   -1514.5639    40.372369    65804.062   -230.75706   0.80856693   -8743.1252 
  317000       633970    303.20779   -8311.9377   -10118.644    1806.7058   -8567.2173   -1551.4263    40.370336    65794.122   -312.33753   0.80868908    -8611.638 
  318000       635970    299.12543   -8186.8051   -9969.1856    1782.3805   -8446.0914   -1523.0942    40.331785    65605.814   -65.242103   0.81101026   -8249.2283 
  319000       637970    296.04185   -9422.9157   -11186.922    1764.0066   -9652.3584   -1534.5639    40.338171    65636.984   -620.72861   0.81062512   -10017.107 
  320000       639970    297.46776   -9543.2507   -11315.754    1772.5031   -9824.7654   -1490.9883    40.342348    65657.375   -401.42591   0.81037337   -9927.6342 
  321000       641970    294.46205   -8494.5629   -10249.156    1754.5931   -8708.2181   -1540.9379    40.361422    65750.546   -296.68085   0.80922503   -8779.0514 
  322000       643970    311.59881   -7598.0904   -9454.7953    1856.7049   -7917.8177   -1536.9776    40.342389    65657.577     5.914287   0.81037087   -7592.4272 
  323000       645970       300.22   -9726.6157   -11515.518    1788.9027   -9983.5297   -1531.9887    40.386153    65871.486   -716.44266    0.8077393   -10414.879 
  324000       647970    301.47749   -7970.4004    -9766.796    1796.3956   -8288.0798   -1478.7161    40.287371    65389.312    264.82375   0.81369549   -7717.8549 
  325000       649970    304.59449   -8272.0784   -10087.047    1814.9687   -8555.9138   -1531.1332    40.336822    65630.396   -233.36797   0.81070649    -8495.447 
  326000       651970    302.95271   -9167.9328   -10973.119     1805.186   -9428.0219   -1545.0969    40.310805    65503.487   -496.10121   0.81227719   -9641.8589 
  327000       653970    309.23397   -7150.7168   -8993.3305    1842.6137   -7510.6301   -1482.7004    40.296494    65433.744    524.21852   0.81314295   -6650.4634 
  328000       655970     296.3906   -5775.4712   -7541.5559    1766.0846   -6007.5448    -1534.011    40.322692    65561.451    719.28452   0.81155903   -5087.7298 
  329000       657970    293.77685   -5472.8808   -7223.3911    1750.5103   -5678.3568   -1545.0344     40.33606    65626.679    759.56932   0.81075241   -4745.8987 
  330000       659970    299.95394   -9436.0209   -11223.338    1787.3173   -9710.4811   -1512.8571    40.310471    65501.856   -439.14385   0.81229742   -9855.5251 
  331000       661970     300.2237   -9746.3865   -11535.311    1788.9247   -10018.892   -1516.4192    40.258275    65247.741   -564.12623   0.81546099   -10283.193 
  332000       663970    305.07424   -7991.0629   -9808.8902    1817.8273   -8298.8014   -1510.0888    40.269649     65303.06    142.69575   0.81477022   -7855.1626 
  333000       665970    299.81214   -9880.5301   -11667.003    1786.4724   -10126.049   -1540.9531    40.362952    65758.025   -892.55691     0.809133   -10736.504 
  334000       667970    297.97319   -6367.7063    -8143.221    1775.5148   -6611.5723   -1531.6487    40.276618     65336.97    546.18687   0.81434735   -5847.2597 
  335000       669970    308.18295   -8495.0637   -10331.415     1836.351   -8804.5252   -1526.8895    40.290835    65406.183   -203.48579    0.8134856   -8689.1652 
  336000       671970    296.72298   -7763.8335   -9531.8987    1768.0652   -7970.4739   -1561.4248      40.3438    65664.465   -212.55489   0.81028587   -7967.3865 
  337000       673970     298.5034   -7462.2314   -9240.9055    1778.6741   -7775.2107   -1465.6948    40.339335    65642.665    433.09757   0.81055496   -7047.6137 
  338000       675970    295.94343   -7230.1727   -8993.5929    1763.4202   -7495.0003   -1498.5926    40.299521    65448.494    334.62009    0.8129597   -6910.7781 
  339000       677970    298.55837   -6173.3911   -7952.3927    1779.0016   -6421.5147    -1530.878    40.298645    65444.224    621.69378   0.81301274   -5580.0237 
  340000       679970    295.98321   -8223.3523   -9987.0095    1763.6572   -8452.5586   -1534.4508    40.290993    65406.952   -120.67927   0.81347604   -8338.4675 
  341000       681970    297.35895   -8315.3323   -10087.187    1771.8547   -8553.6241   -1533.5629    40.293067    65417.053   -85.273308   0.81335043   -8396.6865 
  342000       683970    300.96857   -8845.8535   -10639.217    1793.3631   -9116.3411   -1522.8755    40.351249    65700.843   -341.46393   0.80983723   -9173.0372 
  343000       685970    312.86767   -6301.9515   -8166.2172    1864.2656   -6588.4796   -1577.7375    40.277988    65343.637    344.12513   0.81426426   -5974.0106 
  344000       687970    304.73953   -10555.975   -12371.808     1815.833   -10847.317   -1524.4908    40.404344    65960.538   -1042.1101   0.80664879    -11558.45 
  345000       689970    310.61222   -8260.4905   -10111.317    1850.8262    -8583.192   -1528.1247    40.353128    65710.023   -250.50147   0.80972408   -8500.5493 
  346000       691970    299.43824   -7234.8448   -9019.0893    1784.2445   -7495.0539   -1524.0353    40.259853    65255.415    371.40527    0.8153651   -6881.3846 
  347000       693970    288.18754   -9162.8502   -10880.056    1717.2056   -9370.4888    -1509.567    40.288555    65395.078   -337.36555   0.81362375   -9484.6025 
  348000       695970    308.47372   -8306.5128   -10144.596    1838.0836   -8664.8547   -1479.7418    40.292263    65413.136    63.793032   0.81339914   -8245.6553 
  349000       697970    304.07559   -7610.0733     -9421.95    1811.8768   -7957.1377   -1464.8124    40.264542    65278.218    475.25098   0.81508028   -7157.6268 
  350000       699970    303.19267    -6713.939   -8520.5547    1806.6157   -7087.9239   -1432.6309    40.293008    65416.766    796.80704     0.813354   -5953.7561 
  351000       701970    303.72597   -7451.6861   -9261.4796    1809.7935   -7799.0506    -1462.429    40.269422    65301.956     521.4869   0.81478399   -6955.0417 
  352000       703970    312.21741   -8646.7559   -10507.147    1860.3909   -9016.4541   -1490.6927    40.197593     64953.14    102.09794   0.81915959    -8550.041 
  353000       705970    299.14915   -8097.5485   -9880.0704    1782.5219   -8336.8953    -1543.175    40.224324    65082.804   -46.658827   0.81752759   -8141.8355 
  354000       707970    299.31629   -9111.1456   -10894.663    1783.5178     -9395.12   -1499.5434     40.23211    65120.605   -167.00729   0.81705304   -9269.7553 
  355000       709970    294.11135   -8336.1582   -10088.662    1752.5034   -8563.5227    -1525.139    40.226152     65091.68    31.416441   0.81741611   -8306.3347 
  356000       711970    306.15194   -7990.1856   -9814.4345     1824.249    -8277.885   -1536.5495     40.30289    65464.908   -86.396949   0.81275587   -8072.6721 
  357000       713970    295.40745   -9057.5332    -10817.76    1760.2264   -9337.3518   -1480.4078    40.259526    65253.824    -89.84509   0.81538499   -9143.0352 
  358000       715970    288.51055   -10403.237   -12122.368    1719.1303   -10554.565   -1567.8029    40.257814    65245.498   -1052.3314   0.81548903   -11404.571 
  359000       717970    287.86579   -10822.301    -12537.59    1715.2884   -11029.075   -1508.5149    40.237853    65148.497   -774.45127   0.81670324   -11558.126 
  360000       719970    292.73899   -7505.3131   -9249.6391    1744.3261   -7741.0023   -1508.6368    40.183395    64884.339    448.07803   0.82002821   -7081.3096 
  361000       721970    296.92352   -6889.3274   -8658.5875    1769.2601   -7119.9309   -1538.6566    40.225687    65089.422     379.1336   0.81744447   -6529.4301 
  362000       723970     297.2763   -8922.3911   -10693.753    1771.3622   -9200.8249   -1492.9284    40.224362    65082.991   -21.037224   0.81752525    -8942.359 
  363000       725970    303.49089   -7054.4797   -8862.8724    1808.3927   -7259.5857   -1603.2867    40.184401    64889.212    136.83258   0.81996662   -6924.9892 
  364000       727970    296.65427   -8939.8913   -10707.547    1767.6558   -9159.5356   -1548.0114     40.18302    64882.523   -196.44218   0.82005115   -9125.7737 
  365000       729970    293.34312   -7749.8343   -9497.7601    1747.9259   -7901.3272   -1596.4329    40.139626    64672.548   -3.3907708   0.82271365   -7753.0324 
  366000       731970    297.82412   -7146.7298   -8921.3562    1774.6265   -7410.0205   -1511.3358    40.202443    64976.653    552.36608   0.81886317   -6623.2978 
  367000       733970    293.43423   -9420.5872   -11169.056    1748.4687   -9626.8476   -1542.2082    40.302894    65464.926   -527.58771   0.81275564   -9924.2956 
  368000       735970     298.4577   -9359.3022   -11137.704    1778.4018   -9668.2689   -1469.4351    40.233796    65128.795   -85.443234   0.81695029   -9440.4593 
  369000       737970    310.32346   -8343.5345    -10192.64    1849.1055    -8715.523    -1477.117    40.269849    65304.034    175.07848   0.81475806   -8176.7911 
  370000       739970    301.08778   -8564.6519   -10358.725    1794.0735   -8817.7937   -1540.9316    40.333421    65613.798   -337.01308   0.81091157    -8887.143 
  371000       741970    296.28769   -7372.7513   -9138.2228    1765.4715    -7643.397   -1494.8258    40.263567    65273.474    345.90898   0.81513952   -7043.4644 
  372000       743970    309.75494    -6712.123    -8557.841    1845.7179   -7090.3733   -1467.4677    40.271719    65313.131    860.00473   0.81464458    -5892.947 
  373000       745970    303.14176    -8077.525   -9883.8374    1806.3124   -8362.2253   -1521.6122    40.237468    65146.625    116.76892    0.8167267   -7966.5833 
  374000       747970    303.36362   -8085.8719   -9893.5063    1807.6344   -8373.5667   -1519.9396    40.274442     65326.38   -45.421962   0.81447936   -8129.1463 
  375000       749970    308.24926   -7877.7453   -9714.4915    1836.7462   -8231.3714   -1483.1201    40.250316    65209.049    354.60911   0.81594485   -7540.5095 
  376000       751970    304.20915    -10020.81   -11833.483    1812.6726   -10300.793   -1532.6897    40.298063    65441.391    -746.6127   0.81304795   -10733.374 
  377000       753970    304.00156   -9659.9522   -11471.388    1811.4357   -9933.8582   -1537.5297    40.264777    65279.362    -542.1482   0.81506599   -10176.095 
  378000       755970    300.07897   -7073.0607    -8861.123    1788.0623   -7384.5142   -1476.6088    40.252033    65217.397    676.16502   0.81584041   -6429.9407 
  379000       757970    305.20166   -8540.6676   -10359.254    1818.5866   -8886.0384   -1473.2158    40.331374    65603.809    40.675751   0.81103504   -8501.7505 
  380000       759970    312.02893   -9092.5292   -10951.797    1859.2679   -9461.9358   -1489.8612    40.321846    65557.322   -179.92205   0.81161015   -9264.5502 
  381000       761970    302.64046   -7218.0325   -9021.3579    1803.3254   -7476.1185   -1545.2394    40.300311    65452.341    151.15362   0.81291192   -7073.7481 
  382000       763970    300.72658    -5777.918   -7569.8393    1791.9212    -6088.466   -1481.3733    40.266689    65288.663    1027.1182   0.81494989   -4799.9287 
  383000       765970    299.92433   -9379.7114   -11166.852    1787.1409   -9597.3001   -1569.5522    40.313265    65515.477   -781.58506   0.81212854   -10126.497 
  384000       767970    288.78064   -8423.0498   -10143.789    1720.7396   -8683.3816   -1460.4079    40.253086    65222.514    362.09088   0.81577641   -8078.6277 
  385000       769970    306.78752   -9555.6234    -11383.66    1828.0362   -9859.6223   -1524.0373    40.346628    65678.272   -540.71088   0.81011553   -10073.543 
  386000       771970    303.30311   -7572.5832   -9379.8571    1807.2738     -7899.95    -1479.907    40.287017    65387.589    450.04141   0.81371693   -7143.4188 
  387000       773970    314.97677   -9006.9519   -10883.785     1876.833   -9400.0639    -1483.721    40.348097     65685.45   -263.70831     0.810027   -9259.5726 
  388000       775970    299.86219   -10158.034   -11944.805    1786.7706   -10375.637   -1569.1685    40.292835    65415.925   -921.50114   0.81336446   -11037.169 
  389000       777970    303.22971   -9395.2086   -11202.045    1806.8364   -9701.5412   -1500.5039     40.32782    65586.468   -344.52977   0.81124948   -9724.7552 
  390000       779970    298.63366   -7941.0939   -9720.5441    1779.4503    -8292.108   -1428.4361    40.246059    65188.361    652.03148    0.8162038   -7321.2041 
  391000       781970    305.52825   -6579.7819   -8400.3145    1820.5326   -6939.3518   -1460.9627    40.302206    65461.578    813.38053   0.81279721   -5803.2557 
  392000       783970    298.74297   -7602.7239   -9382.8255    1780.1016   -7870.5725   -1512.2531    40.268452    65297.235    294.96511    0.8148429   -7321.8307 
  393000       785970    297.26486   -9722.6288   -11493.923    1771.2941   -9988.6237   -1505.2992    40.276391    65335.867   -456.60571    0.8143611   -10157.709 
  394000       787970    298.63203   -8726.1141   -10505.555    1779.4405   -9025.2458   -1480.3088     40.25024    65208.682    99.492379   0.81594945   -8631.4967 
  395000       789970    292.17782   -8639.3727   -10380.355    1740.9822   -8898.5177   -1481.8373    40.248453    65199.999    176.95766   0.81605812   -8471.1081 
  396000       791970    303.15291   -7861.5691   -9667.9479    1806.3789   -8186.5111   -1481.4368    40.210327    65014.889    451.37169   0.81838159   -7433.5895 
  397000       793970    300.31736   -8281.4346   -10070.917    1789.4828   -8514.1649   -1556.7525    40.334914    65621.087   -309.04733    0.8108215   -8577.1979 
  398000       795970    297.13661   -7196.8203   -8967.3502    1770.5299   -7465.5158   -1501.8344    40.227721    65099.295    546.26116   0.81732049   -6678.1964 
  399000       797970    304.09643   -10004.187   -11816.188    1812.0009   -10368.355   -1447.8332    40.337924    65635.778   -273.96116   0.81064001   -10266.431 
  400000       799970    296.51198   -8674.4987   -10441.307     1766.808   -8959.2227    -1482.084    40.316349    65530.515    4.9044471   0.81194216   -8669.8116 
  401000       801970    299.83199   -9803.0404   -11589.631    1786.5907   -10128.126   -1461.5051    40.340097    65646.386   -295.94707   0.81050902   -10086.376 
  402000       803970    304.40691   -8002.6979   -9816.5489     1813.851   -8329.2352   -1487.3137    40.338576     65638.96    125.64096   0.81060072   -7882.4247 
  403000       805970    300.24404   -8681.8471   -10470.893    1789.0459   -8942.2332   -1528.6598    40.314718    65522.563   -168.69596    0.8120407   -8843.0494 
  404000       807970    309.70422   -9034.8467   -10880.262    1845.4158   -9346.2302   -1534.0322    40.306417    65482.098   -413.49781   0.81254251   -9429.7326 
  405000       809970    297.40051   -9303.4284   -11075.531    1772.1024   -9623.1637   -1452.3671    40.337584    65634.117   -95.860867   0.81066053    -9395.187 
  406000       811970    300.43916   -7062.7722   -8852.9808    1790.2086   -7338.8877   -1514.0931    40.289801    65401.149    447.09172   0.81354822   -6636.3322 
  407000       813970    304.61169   -6815.6254   -8630.6966    1815.0712   -7125.0457   -1505.6509    40.280397    65355.362    629.09774   0.81411818   -6216.0066 
  408000       815970    307.17678    -8900.993   -10731.349    1830.3556   -9201.1611   -1530.1875    40.246241    65189.248   -195.82783    0.8161927   -9087.1701 
  409000       817970    300.41997   -8092.3085   -9882.4028    1790.0942   -8461.6286   -1420.7741     40.30148    65458.037    601.85123   0.81284119   -7517.7583 
  410000       819970    304.91091   -8946.3627   -10763.217    1816.8541   -9258.7967   -1504.4202    40.244561    65181.084   -168.69114   0.81629493   -9106.7204 
  411000       821970    297.57942   -8814.1862   -10587.355    1773.1684   -9012.3693   -1574.9854    40.333016    65611.821   -635.54551     0.810936   -9422.3277 
  412000       823970    292.42789   -7983.6403   -9726.1126    1742.4723   -8245.8541   -1480.2586    40.297471    65438.504    220.97947   0.81308381   -7772.7478 
  413000       825970    302.16838   -10659.819   -12460.332    1800.5124   -11007.219   -1453.1122    40.311018    65504.524   -432.36054   0.81226432    -11072.86 
  414000       827970    302.36296   -7379.2408   -9180.9126    1801.6718   -7647.4423   -1533.4703    40.237024    65144.468    321.72752   0.81675374   -7073.5786 
  415000       829970    301.58367   -7972.7138   -9769.7421    1797.0283   -8272.0114   -1497.7307     40.31378    65517.987    226.03329   0.81209741   -7756.7361 
  416000       831970    290.98272   -8567.9788    -10301.84    1733.8611   -8744.4576   -1557.3823     40.26856    65297.765   -255.93834   0.81483629   -8811.7092 
  417000       833970    298.36373   -10138.807   -11916.649    1777.8418   -10363.241   -1553.4074    40.305712    65478.659   -819.31761   0.81258518   -10921.205 
  418000       835970    299.64802   -9834.9875   -11620.482    1785.4945   -10164.603   -1455.8793    40.325234    65573.851    -199.5113   0.81140557   -10025.786 
  419000       837970    300.24045   -9988.8677   -11777.892    1789.0245   -10234.146   -1543.7466    40.267917    65294.636   -684.20259   0.81487533   -10640.403 
  420000       839970    297.49726   -7347.5458   -9120.2247    1772.6789   -7587.3753   -1532.8494    40.307541    65487.574    229.06746   0.81247456   -7128.7705 
  421000       841970    299.48141   -7316.1955   -9100.6972    1784.5017   -7617.3544   -1483.3428     40.33105    65602.227    433.58208    0.8110546   -6901.3697 
  422000       843970    300.41866   -8501.9553   -10292.042    1790.0865   -8831.7695   -1460.2723    40.324745    65571.464    126.65616   0.81143511    -8380.835 
  423000       845970    294.64676   -6934.2991   -8689.9929    1755.6937   -7148.4895   -1541.5034    40.317814    65537.658    283.44019   0.81185367   -6663.3871 
  424000       847970    289.76044   -8035.0059   -9761.5838    1726.5779   -8254.1647   -1507.4191    40.294554    65424.296    119.81105   0.81326038   -7920.6886 
  425000       849970     292.4421   -6907.6789   -8650.2359     1742.557   -7114.5237   -1535.7122    40.239095    65154.528    424.19554   0.81662763   -6504.6032 
  426000       851970    295.68655   -9477.7701    -11239.66    1761.8895   -9749.5865   -1490.0731    40.254621    65229.979   -280.24542   0.81568305    -9744.371 
  427000       853970    305.89407    -6593.065   -8415.7774    1822.7124   -6881.3485   -1534.4289    40.323571    65565.739    347.54991   0.81150597   -6260.7346 
  428000       855970     306.1202   -7668.3475   -9492.4073    1824.0598    -7946.654   -1545.7533    40.274973    65328.967   -26.922684   0.81444711   -7693.9982 
  429000       857970    283.91759   -10647.399   -12339.162    1691.7625   -10795.257   -1543.9054    40.304704    65473.748    -993.5884   0.81264613   -11596.145 
  430000       859970    303.70131   -8812.2921   -10621.939    1809.6465   -9060.7738   -1561.1648     40.36471    65766.618   -529.97311   0.80902728   -9320.6098 
  431000       861970    300.31029   -8426.1441   -10215.585    1789.4407    -8759.771   -1455.8138    40.262014    65265.925    247.78568   0.81523379   -8190.2927 
  432000       863970    307.70308   -8163.2568   -9996.7484    1833.4917   -8498.4001   -1498.3483    40.303167    65466.261    90.426813   0.81273907    -8076.921 
  433000       865970    295.63377     -7974.17    -9735.745     1761.575   -8250.0378   -1485.7072    40.338739    65639.754    80.328053   0.81059092   -7897.2728 
  434000       867970    298.54225   -8933.7552   -10712.661    1778.9056   -9171.7493   -1540.9115    40.336844    65630.505   -469.74659   0.81070514   -9383.3749 
  435000       869970    301.99035   -10529.413   -12328.864    1799.4516   -10832.866   -1495.9987    40.297874    65440.468   -668.60733   0.81305941    -11167.52 
  436000       871970    303.57348   -7103.2234   -8912.1083    1808.8849   -7498.5137   -1413.5946    40.248059    65198.081    1027.9935   0.81608212   -6125.7588 
  437000       873970    302.09811   -8108.4271   -9908.5208    1800.0937   -8477.5955   -1430.9252    40.260316    65257.664    485.42047     0.815337   -7646.4447 
  438000       875970    300.33655   -7977.9759   -9767.5731    1789.5972   -8193.7298   -1573.8433    40.274652    65327.403   -252.31657   0.81446661   -8218.3663 
  439000       877970    298.02821   -7960.7521   -9736.5947    1775.8426   -8247.4526   -1489.1421    40.261215    65262.038    368.86071   0.81528236   -7609.6779 
  440000       879970    311.22909   -6621.5015   -8476.0033    1854.5019   -6984.9884    -1491.015    40.225045    65086.305    893.11633   0.81748362   -5773.7403 
  441000       881970    301.38745   -7796.0817   -9591.9408    1795.8591   -8064.1441   -1527.7967    40.214414    65034.712    195.93114   0.81813214    -7610.248 
  442000       883970    300.67896   -11436.605   -13228.242    1791.6375   -11774.505   -1453.7378    40.218564    65054.851   -616.31614   0.81787887    -12021.34 
  443000       885970    300.15372   -11176.973   -12965.481    1788.5078   -11498.499   -1466.9816    40.344161    65666.229   -964.09578   0.81026411   -12100.263 
  444000       887970    307.86618   -6954.2498   -8788.7133    1834.4635   -7300.1161   -1488.5972    40.290611    65405.091    633.44177   0.81349919   -6350.0311 
  445000       889970    290.29896   -9086.0234    -10815.81    1729.7868     -9296.59   -1519.2202    40.329426    65594.301    -344.1607    0.8111526   -9415.2564 
  446000       891970    286.78633   -6035.0209   -7743.8772    1708.8563    -6298.938   -1444.9392    40.266779    65289.097    1232.8935   0.81494446   -4861.0912 
  447000       893970    305.58242   -8468.8391   -10289.695    1820.8554   -8822.0417   -1467.6528    40.298386    65442.966    154.83759   0.81302838   -8321.0593 
  448000       895970    291.50633    -7925.149   -9662.1301    1736.9811   -8159.4039   -1502.7262    40.292724    65415.381    176.88646   0.81337121   -7756.3964 
  449000       897970    297.68954   -9586.2128   -11360.037    1773.8246   -9833.3296   -1526.7078    40.218796    65055.974   -437.67268   0.81786475   -10001.466 
  450000       899970    297.82152   -8975.2551   -10749.866     1774.611   -9252.2627   -1497.6035    40.197328    64951.853    144.84844   0.81917583   -8838.0466 
  451000       901970    293.58098   -8349.2152   -10098.558    1749.3432   -8537.9777   -1560.5807    40.228321    65102.208   -121.73698   0.81728393   -8464.7982 
  452000       903970    302.11045   -8246.7472   -10046.914    1800.1672   -8503.8557   -1543.0587    40.225384    65087.949    23.207434   0.81746297   -8224.7178 
  453000       905970    305.81714   -9426.2544   -11248.508     1822.254    -9772.243   -1476.2655    40.280063    65353.735   -70.246477   0.81413845   -9493.2076 
  454000       907970    301.22061   -7721.7793   -9516.6442    1794.8649    -8043.118   -1473.5262    40.258365     65248.18    533.04478   0.81545552   -7214.5457 
  455000       909970    304.86502   -7997.6583    -9814.239    1816.5807   -8281.7631   -1532.4759    40.242527    65171.204    149.44983   0.81641868   -7855.6129 
  456000       911970    299.95739   -6934.8658   -8722.2037    1787.3379   -7220.9776   -1501.2261    40.197507    64952.724    780.02398   0.81916485   -6195.9734 
  457000       913970    301.22595   -7789.5945   -9584.4913    1794.8968   -8137.4704   -1447.0209      40.2814    65360.243     605.5488   0.81405738   -7212.3781 
  458000       915970    306.07897   -8224.2954    -10048.11    1823.8142   -8525.5617   -1522.5479    40.282134    65363.816    58.158578   0.81401287   -8168.8549 
  459000       917970    291.79272   -9818.7079   -11557.395    1738.6876   -10026.881   -1530.5146     40.28636     65384.39   -536.74374   0.81375674   -10330.528 
  460000       919970    307.37541   -6145.0439   -7976.5831    1831.5392   -6460.2701    -1516.313    40.318727    65542.114    792.39965   0.81179847   -5387.6172 
  461000       921970    294.85442   -10358.256   -12115.188    1756.9311   -10579.798     -1535.39    40.333097    65612.217   -753.13352   0.81093111    -11078.92 
  462000       923970    298.67346   -7453.3067   -9232.9941    1779.6874   -7717.2248   -1515.7693    40.308902    65494.211    255.31802   0.81239223   -7209.4356 
  463000       925970    299.28549   -5754.1945   -7537.5288    1783.3343   -6047.0242   -1490.5047    40.329394    65594.145    897.43365   0.81115454   -4895.6886 
  464000       927970    297.99759   -5634.4477   -7410.1079    1775.6602   -5942.8465   -1467.2614    40.317227    65534.796    1157.1427   0.81188912   -4528.4995 
  465000       929970    295.89368    -9348.727   -11111.851    1763.1237   -9620.6638    -1491.187     40.30947    65496.977   -219.68407   0.81235792   -9558.5706 
  466000       931970    307.26898   -8725.8993   -10556.804     1830.905   -9081.9253    -1474.879    40.254647    65230.104    235.10626   0.81568148   -8502.2394 
  467000       933970    299.05437   -8409.6841   -10191.641    1781.9571   -8730.3475   -1461.2938    40.231696    65118.594    360.33329   0.81707827     -8067.48 
  468000       935970    297.88741   -10087.203   -11862.207    1775.0036   -10352.728   -1509.4785    40.222641    65074.636    -439.0965   0.81763021   -10503.926 
  469000       937970    294.52632   -9758.2824   -11513.259    1754.9761   -10065.058   -1448.2005    40.197201     64951.24   -63.916152   0.81918356   -9818.8268 
  470000       939970    299.07536   -11295.079   -13077.161    1782.0822   -11533.181     -1543.98    40.210621    65016.313   -1171.9946   0.81836367    -12406.36 
  471000       941970    312.66791   -10005.343   -11868.419    1863.0753   -10366.871   -1501.5473    40.315789    65527.786   -633.70053   0.81197597   -10610.943 
  472000       943970    296.29075   -7603.0086   -9368.4983    1765.4897    -7893.131   -1475.3673    40.279917    65353.027    533.71799   0.81414727   -7094.3183 
  473000       945970     296.2212   -10639.024   -12404.099    1765.0753   -10887.031   -1517.0684    40.311727    65507.983   -785.65405   0.81222144   -11389.612 
  474000       947970    297.60639   -8328.1482   -10101.477    1773.3292   -8615.5369   -1485.9405    40.196603    64948.342    332.09111   0.81922011   -8013.5899 
  475000       949970    293.52202   -10232.167   -11981.159    1748.9918   -10517.489   -1463.6692    40.228872    65104.885   -283.77288   0.81725032   -10501.606 
  476000       951970    294.08136     -8049.82   -9802.1448    1752.3248   -8275.5354   -1526.6093    40.208596    65006.491    177.42324   0.81848731   -7881.6134 
  477000       953970    292.76539   -9462.5877   -11207.071    1744.4833   -9705.2434   -1501.8277    40.206152    64994.637   -115.68214   0.81863659   -9572.2405 
  478000       955970    314.72555   -9614.9211   -11490.257    1875.3361   -9984.6222   -1505.6349     40.25033    65209.118    -387.4437   0.81594399   -9983.3832 
  479000       957970    298.33889   -8707.7339   -10485.428    1777.6939   -9006.9182   -1478.5095    40.267373    65291.988    122.74872   0.81490838   -8590.8505 
  480000       959970    307.63628   -9461.4702   -11294.564    1833.0936   -9782.9455   -1511.6183    40.273027    65319.495   -355.62742   0.81456521   -9800.2473 
  481000       961970    298.65361   -8046.7139    -9826.283    1779.5691   -8361.6953   -1464.5877     40.30428    65471.683     302.6129   0.81267176   -7757.7678 
  482000       963970    306.31663   -6902.2616   -8727.4919    1825.2303   -7326.7974   -1400.6945    40.221729    65070.211    1069.6629   0.81768581   -5887.1704 
  483000       965970    311.43718   -8081.5518   -9937.2936    1855.7418   -8491.6039   -1445.6897      40.2218    65070.553    502.71201   0.81768151   -7604.4845 
  484000       967970    312.04286   -10542.788   -12402.139    1859.3509    -10969.42   -1432.7183    40.247508    65195.406   -304.55311    0.8161156   -10832.359 
  485000       969970    298.54566   -8868.3343    -10647.26    1778.9259   -9106.7263   -1540.5339    40.220274    65063.148   -324.59774   0.81777457   -9176.3383 
  486000       971970     295.4645    -8529.074    -10289.64    1760.5664   -8849.6842   -1439.9562    40.260183    65257.018    300.48706   0.81534507   -8243.0985 
  487000       973970     299.4118   -9825.7247   -11609.812    1784.0869   -10111.492   -1498.3191    40.229092    65105.952   -502.05599   0.81723693   -10302.429 
  488000       975970    305.38981   -6575.0364    -8394.744    1819.7077   -6853.6662   -1541.0779    40.240707    65162.361    446.70395   0.81652947   -6150.5219 
  489000       977970    297.15458   -10182.623    -11953.26    1770.6369   -10468.306   -1484.9539    40.302417    65462.602   -642.43586    0.8127845   -10795.959 
  490000       979970    307.37285   -6372.0002   -8203.5242    1831.5239   -6726.4134   -1477.1107     40.21432    65034.257    1014.3841   0.81813786   -5409.8996 
  491000       981970    310.95559   -7347.3172   -9200.1894    1852.8722   -7611.6041   -1588.5853    40.209682    65011.758  0.092980593   0.81842101   -7347.2291 
  492000       983970    309.00696     -7799.16    -9640.421     1841.261   -8118.5462   -1521.8748    40.264096     65276.05    167.48842   0.81510735   -7639.7137 
  493000       985970    301.61799   -10336.683   -12133.916    1797.2328    -10637.24   -1496.6759    40.287796    65391.384   -678.53947    0.8136697   -10983.783 
  494000       987970    305.61737   -7348.9645   -9170.0282    1821.0637   -7631.4258   -1538.6024    40.203235    64980.494     283.7451   0.81881476   -7080.0667 
  495000       989970    303.03415   -10050.743   -11856.414    1805.6712   -10348.005   -1508.4096    40.291655    65410.175   -558.92961   0.81343595   -10583.929 
  496000       991970    298.43364   -7960.9443   -9739.2027    1778.2584   -8182.7815   -1556.4212    40.257849    65245.669   -106.83309    0.8154869   -8062.6003 
  497000       993970    289.61362    -8428.477    -10154.18    1725.7031   -8648.7182    -1505.462     40.25648    65239.014    33.890541   0.81557009   -8396.2321 
  498000       995970    302.54423    -9169.868    -10972.62    1802.7519   -9491.5316   -1481.0884    40.271298    65311.081   -132.12994   0.81467015   -9295.7211 
  499000       997970    310.05279   -7292.6321   -9140.1249    1847.4927   -7657.3686   -1482.7562    40.261644    65264.124    531.09537   0.81525629   -6787.1301 
  500000       999970    305.63537   -8324.8496   -10146.021    1821.1709   -8594.5407   -1551.4799    40.233342    65126.588   -117.98054   0.81697798   -8436.9081 
  501000      1001970    288.84638   -6702.5252   -8423.6566    1721.1314   -6859.2912   -1564.3653    40.296366    65433.121    274.59098    0.8131507   -6440.4899 
  502000      1003970    305.13509   -7769.0053   -9587.1953      1818.19   -8048.1282   -1539.0671    40.234855    65133.934     152.2327   0.81688583   -7624.3977 
  503000      1005970    304.33524   -6952.8518   -8766.2757    1813.4239   -7271.1569   -1495.1187    40.211489    65020.523    740.18156   0.81831067   -6250.9689 
  504000      1007970    303.67089    -7860.889   -9670.3543    1809.4653   -8188.1825   -1482.1719    40.209099    65008.932    435.32172   0.81845658   -7448.1655 
  505000      1009970    294.61988   -7975.7103    -9731.244    1755.5336   -8267.3787   -1463.8653    40.277413    65340.839    403.30698   0.81429913   -7591.3874 
  506000      1011970    297.93221   -7596.3564   -9371.6269    1775.2706   -7835.1172   -1536.5097    40.245294    65184.644    144.17854   0.81625034   -7459.2929 
  507000      1013970    299.00547   -7660.0287   -9441.6944    1781.6657   -7999.2912   -1442.4032    40.310036    65499.739    531.00075   0.81232367   -7152.7921 
  508000      1015970    292.07667    -7064.185   -8804.5645    1740.3795   -7353.6132   -1450.9513    40.302285    65461.963    771.00827   0.81279244   -6328.1068 
  509000      1017970    310.35036   -7411.6561    -9260.922    1849.2659   -7731.7342   -1529.1878    40.289556    65399.955    270.69681   0.81356307   -7153.4679 
  510000      1019970      297.925   -10458.337   -12233.564    1775.2276   -10693.658   -1539.9064    40.346155    65675.965   -972.01737   0.81014398   -11389.351 
  511000      1021970    287.59124   -8819.2968   -10532.949    1713.6525   -9067.6306   -1465.3187    40.259983    65256.049    247.39056   0.81535719   -8583.8571 
  512000      1023970    298.15093   -7274.0178   -9050.5916    1776.5739   -7532.1671   -1518.4245    40.272183    65315.388    314.36607   0.81461643   -6974.5659 
  513000      1025970     313.0705   -11500.169   -13365.643    1865.4742   -11929.419   -1436.2245    40.344632    65668.525   -788.11782   0.81023577   -12254.956 
  514000      1027970    302.09929   -9363.1045   -11163.205    1800.1007   -9677.3437   -1485.8615    40.303025    65465.565   -298.00886   0.81274771   -9647.6279 
  515000      1029970    298.78904   -10114.664    -11895.04    1780.3761   -10392.372   -1502.6677    40.341067    65651.122   -603.43057   0.81045055   -10692.421 
  516000      1031970    305.61457   -11147.424   -12968.471     1821.047   -11472.018   -1496.4535    40.284925    65377.406   -810.10841   0.81384368   -11919.832 
  517000      1033970    298.10954   -11590.155   -13366.482    1776.3272   -11832.706   -1533.7759    40.312886    65513.632   -1321.9087   0.81215141   -12853.171 
  518000      1035970    299.99611   -7210.8681   -8998.4367    1787.5686   -7485.2205   -1513.2162    40.239399    65156.004    538.90503   0.81660913   -6698.7824 
  519000      1037970    302.20943   -11144.924   -12945.681     1800.757   -11493.081   -1452.6001    40.221915    65071.112   -573.69074   0.81767449   -11689.353 
  520000      1039970    302.82473   -6871.8405   -8676.2639    1804.4233   -7084.6351   -1591.6288    40.264172    65276.417    214.37873   0.81510277   -6667.7542 
  521000      1041970    304.07002   -8687.8236   -10499.667    1811.8435   -9026.4821    -1473.185    40.237206    65145.353    275.57543   0.81674265   -8426.0054 
  522000      1043970    294.68569   -8592.7744     -10348.7    1755.9257   -8811.0074   -1537.6928      40.2245    65083.658   -165.90449   0.81751686   -8750.2474 
  523000      1045970    293.31477   -7900.2573   -9648.0142    1747.7569    -8167.893   -1480.1212    40.247372    65194.743    416.52183   0.81612391    -7504.229 
  524000      1047970    309.68625   -7946.7606   -9792.0693    1845.3087   -8275.8518   -1516.2175    40.183475    64884.723     324.4927   0.82002335   -7639.7006 
  525000      1049970    296.47656   -6698.3486   -8464.9455    1766.5969   -6966.9498   -1497.9957    40.155881    64751.149     988.6451   0.82171496   -5764.7422 
  526000      1051970    307.20337   -8895.5622   -10726.076    1830.5141   -9189.0221   -1537.0542    40.244027    65178.489   -257.97858   0.81632743   -9140.7867 
  527000      1053970    298.66494   -8378.2339   -10157.871    1779.6366   -8633.6545   -1524.2161    40.211887    65022.455    28.643236   0.81828636   -8351.0719 
  528000      1055970     308.5543   -7218.7703    -9057.334    1838.5638   -7531.8325   -1525.5015    40.224771    65084.977    444.72455    0.8175003   -6796.6388 
  529000      1057970    293.54301   -6482.1528   -8231.2697    1749.1169   -6670.5219   -1560.7477    40.187194     64902.74    609.93266   0.81979571   -5904.8272 
  530000      1059970    306.26361   -7063.2274   -8888.1417    1824.9144   -7370.3878   -1517.7539    40.156678    64755.004     633.1104   0.82166605   -6465.3272 
  531000      1061970    301.92784   -9745.5635   -11544.643    1799.0791   -10030.511   -1514.1311    40.193806    64934.784   -400.99046   0.81939117   -10125.304 
  532000      1063970    306.60268   -6237.7163   -8064.6511    1826.9348   -6507.1146   -1557.5365    40.082436    64396.511    970.24091   0.82624023   -5326.5077 
  533000      1065970     302.4142   -9822.9651   -11624.942    1801.9771   -10137.407    -1487.535    40.172173    64829.993   -307.81444   0.82071562   -10113.997 
  534000      1067970    304.89604   -6514.1509   -8330.9165    1816.7655    -6787.197   -1543.7195     40.10899    64524.579    761.91512   0.82460031   -5797.1699 
  535000      1069970    295.99387   -8226.3264   -9990.0471    1763.7207   -8417.6072     -1572.44    40.125903    64606.238   -24.617601   0.82355807   -8249.5215 
  536000      1071970    304.47602   -9914.5894   -11728.852    1814.2628    -10136.78   -1592.0726    40.146101    64703.848   -738.04671   0.82231567   -10611.039 
  537000      1073970    297.25918   -8535.7045   -10306.965    1771.2602   -8806.7344   -1500.2303    40.133323    64642.088    287.79015   0.82310132   -8264.3936 
  538000      1075970    305.93323   -9455.6755   -11278.621    1822.9458    -9719.491   -1559.1303    40.231005    65115.239   -447.62138   0.81712037   -9880.7542 
  539000      1077970    304.72862   -11204.452    -13020.22    1815.7679   -11552.545   -1467.6748     40.20926    65009.714   -711.97853   0.81844674   -11879.479 
  540000      1079970     294.4201   -9559.1597   -11313.503    1754.3431   -9851.0134   -1462.4894     40.16541    64797.257    62.864777   0.82113026   -9499.7524 
  541000      1081970    295.51414   -8294.9737   -10055.836    1760.8622   -8522.3162   -1533.5197    40.243929    65178.016   -69.299382   0.81633335   -8360.8465 
  542000      1083970    297.77019   -7718.1577   -9492.4628    1774.3051   -8016.1959   -1476.2669    40.134311    64646.858       586.54   0.82304059    -7165.163 
  543000      1085970    305.05181   -8659.3326   -10477.026    1817.6937   -9010.2805   -1466.7459    40.182618    64880.573    406.54449   0.82007581   -8274.6535 
  544000      1087970    301.45778   -8459.0725   -10255.351    1796.2782   -8779.9378    -1475.413     40.15684    64755.788    281.31664    0.8216561    -8193.398 
  545000      1089970    300.50799   -7342.2279   -9132.8467    1790.6187   -7635.9751   -1496.8716    40.130366    64627.798    657.83752   0.82328332   -6722.1962 
  546000      1091970    288.37046   -8298.3952   -10016.691    1718.2956   -8567.9815   -1448.7093     40.15782     64760.53    737.29464   0.82159593   -7602.0456 
  547000      1093970    296.96869    -9487.281    -11256.81    1769.5293   -9735.3954   -1521.4149    40.213976    65032.588   -312.84166   0.81815886   -9783.9905 
  548000      1095970    304.86739    -9225.806   -11042.401    1816.5948   -9517.4027   -1524.9981    40.160337    64772.705   -142.29334   0.82144151   -9360.2224 
  549000      1097970    296.68498   -8522.5899   -10290.429    1767.8388   -8749.6338   -1540.7949    40.155501    64749.309   -51.951141   0.82173832   -8571.6475 
  550000      1099970    302.24174    -8970.058   -10771.007    1800.9495    -9240.944   -1530.0635    40.149623    64720.882    76.631525   0.82209924   -8897.7264 
  551000      1101970    312.05559   -9897.8516   -11757.278    1859.4267   -10269.636   -1487.6422    40.058119    64279.375     115.7253   0.82774588   -9789.3651 
  552000      1103970    304.20196   -8338.1388   -10150.769    1812.6297   -8586.0879   -1564.6806     40.12666    64609.894     13.51178   0.82351146    -8325.407 
  553000      1105970    295.21122    -9389.845   -11148.902    1759.0572   -9633.9055   -1514.9966    40.177677    64856.644   -213.47081   0.82037837   -9591.7601 
  554000      1107970    305.01197   -7048.2729   -8865.7293    1817.4563   -7389.7166   -1476.0127    40.190583    64919.162    867.42327   0.81958834   -6227.0145 
  555000      1109970    295.55418   -8780.6115   -10541.712    1761.1008   -9103.0212   -1438.6911    40.167966    64809.629    418.43713    0.8209735   -8385.1122 
  556000      1111970    291.40788   -9309.5624   -11045.957    1736.3945   -9544.9333   -1501.0236    40.193331    64932.481   -205.51001   0.81942022    -9504.175 
  557000      1113970    296.32894   -11960.367   -13726.084    1765.7173   -12199.951   -1526.1335    40.220252    65063.042   -1298.1373   0.81777591   -13192.141 
  558000      1115970     290.7569   -8248.5581   -9981.0736    1732.5155   -8431.3499   -1549.7237    40.168121    64810.378    86.963079   0.82096402   -8166.3613 
  559000      1117970    294.46376   -11630.354   -13384.957    1754.6033   -11849.218   -1535.7391    40.249426    65204.726    -1177.427   0.81599896   -12750.021 
  560000      1119970     289.3723   -9689.7717   -11414.037    1724.2651   -9998.4146   -1415.6223    40.231979    65119.971    135.77604   0.81706099   -9560.8241 
  561000      1121970    297.48853   -8839.8745   -10612.501    1772.6268   -9121.3969   -1491.1045    40.171038    64824.499    142.45948   0.82078518   -8705.1935 
  562000      1123970    295.49069   -9385.2712   -11145.994    1760.7224   -9640.0617   -1505.9319     40.25312    65222.683   -272.33501   0.81577429   -9644.3178 
  563000      1125970    306.80287    -7871.074   -9699.2016    1828.1276   -8194.5311   -1504.6705    40.189437    64913.612    387.87357   0.81965841   -7503.8747 
  564000      1127970    296.25186   -10144.664   -11909.922     1765.258   -10388.205   -1521.7177    40.255941    65236.395   -628.71979   0.81560282   -10742.832 
  565000      1129970    299.95903   -8300.2811   -10087.629    1787.3477   -8567.4888     -1520.14    40.276991    65338.787    80.039466    0.8143247   -8224.0116 
  566000      1131970    296.99009   -9147.5417   -10917.199    1769.6568   -9407.3339   -1509.8646    40.213317    65029.393     -81.0447   0.81819906   -9224.4035 
  567000      1133970    286.78542   -6895.2008   -8604.0517    1708.8509   -7075.1261   -1528.9256    40.138885    64668.967    740.63123    0.8227592   -6196.6889 
  568000      1135970     314.8876   -6438.0381   -8314.3397    1876.3016   -6779.9983   -1534.3415    40.194862    64939.903    774.90541   0.81932657   -5704.1392 
  569000      1137970    298.90581   -6606.7267   -8387.7986    1781.0719   -6864.8016    -1522.997    40.188227    64907.746    702.00762   0.81973249   -5942.1972 
  570000      1139970    300.68818   -8454.4013   -10246.094    1791.6924   -8709.7753   -1536.3185    40.243523    65176.041   -68.828585   0.81635809   -8519.8247 
  571000      1141970    302.17629   -7289.9267   -9090.4861    1800.5595   -7527.0267   -1563.4594    40.202339    64976.146    213.00767   0.81886956   -7088.0784 
  572000      1143970    299.52635    -7145.142   -8929.9115    1784.7695   -7366.3016   -1563.6099    40.220804    65065.722    355.89963   0.81774222   -6807.4228 
  573000      1145970    298.54892   -6540.6383   -8319.5836    1778.9453   -6806.3337     -1513.25    40.233995    65129.757    715.47841   0.81693823   -5861.0406 
  574000      1147970    302.07398   -7872.9531    -9672.903    1799.9499   -8074.4648   -1598.4383    40.241986    65168.576   -273.91076    0.8164516   -8133.2825 
  575000      1149970    306.73859   -9216.8702   -11044.615    1827.7446   -9538.5793   -1506.0355    40.271825    65313.648   -223.83671   0.81463813   -9430.0819 
  576000      1151970    302.23305   -6871.4369   -8672.3347    1800.8977   -7162.0609   -1510.2737    40.256763    65240.391     549.9424   0.81555288   -6348.1864 
  577000      1153970    300.60818   -7808.5752   -9599.7909    1791.2157   -8083.3536   -1516.4373    40.244878    65182.625    306.36273   0.81627563   -7517.3401 
  578000      1155970     302.4711   -9514.3476   -11316.664    1802.3162   -9805.7642   -1510.8996     40.25097     65212.23   -358.92392   0.81590506   -9855.7035 
  579000      1157970    294.12857   -9525.4843    -11278.09     1752.606   -9747.5569   -1530.5334    40.284579     65375.72   -541.28021   0.81386465   -10041.561 
  580000      1159970    306.82922   -7299.7021   -9127.9867    1828.2846   -7634.7479   -1493.2389    40.244216    65179.408    567.87813   0.81631591   -6759.8915 
  581000      1161970    300.72681   -12456.924   -14248.846    1791.9226   -12811.331   -1437.5146    40.306931    65484.601   -1093.5723   0.81251145   -13501.313 
  582000      1163970    302.17447   -9368.1911    -11168.74    1800.5487   -9679.1362   -1489.6036    40.177956    64857.997   -163.33888   0.82036126   -9522.6913 
  583000      1165970    304.61559   -7423.1672   -9238.2617    1815.0945   -7712.3487    -1525.913    40.197641    64953.371    336.52176   0.81915669   -7104.3875 
  584000      1167970    300.00037   -10025.538   -11813.132     1787.594   -10333.435   -1479.6968     40.20373    64982.892   -322.62858   0.81878455   -10331.296 
  585000      1169970    292.58133   -7689.1891   -9432.5757    1743.3866   -7908.9659   -1523.6099    40.234346    65131.463    277.34344   0.81691683   -7425.7474 
  586000      1171970    300.51434   -8948.8782   -10739.535    1790.6565   -9206.3806   -1533.1541    40.197023    64950.377    -76.20196   0.81919445   -9021.0593 
  587000      1173970    298.07615   -7115.8478   -8891.9761    1776.1282   -7343.5336   -1548.4425     40.21785    65051.385    350.36117   0.81792245   -6783.4575 
  588000      1175970    305.57992    -8441.393   -10262.233    1820.8405   -8688.2844   -1573.9491    40.215866    65041.757   -115.16383   0.81804352   -8550.6336 
  589000      1177970    305.49577   -8703.8305    -10524.17    1820.3391   -8954.5104   -1569.6592    40.225251    65087.307   -310.74435   0.81747104   -8998.7989 
  590000      1179970    301.68267   -8413.5191   -10211.137    1797.6182    -8668.681   -1542.4563    40.183303    64883.892    48.510777   0.82003386    -8367.615 
  591000      1181970    295.26977   -10548.665   -12308.071    1759.4061     -10769.9   -1538.1716    40.347678      65683.4   -994.62681   0.81005228   -11501.443 
  592000      1183970    299.25018   -7106.9464   -8890.0703    1783.1239   -7342.8209   -1547.2495    40.185249    64893.322    452.94797    0.8199147   -6678.2753 
  593000      1185970    298.68162    -9101.405   -10881.141     1779.736   -9404.2601   -1476.8809     40.26215    65266.587    103.27788   0.81522553   -9003.1003 
  594000      1187970    297.70867    -8386.326   -10160.265    1773.9386   -8651.6916   -1508.5731    40.229699    65108.896    169.41296   0.81719997   -8225.4605 
  595000      1189970    301.41635   -8225.6603   -10021.692    1796.0313   -8514.4929   -1507.1987     40.16932    64816.182    319.07268    0.8208905   -7924.0481 
  596000      1191970    304.07705   -9146.4584   -10958.344    1811.8854   -9458.6667   -1499.6771    40.184667      64890.5    50.421817   0.81995035   -9098.7411 
  597000      1193970    304.42182   -7434.4336   -9248.3734    1813.9398   -7739.1623   -1509.2111    40.212474    65025.301    546.79507   0.81825055   -6915.8929 
  598000      1195970    295.86739   -9674.2309   -11437.198     1762.967   -9982.4252   -1454.7728     40.20162     64972.66    13.561577    0.8189135   -9661.3805 
  599000      1197970    296.14721   -9832.0777   -11596.712    1764.6344    -10044.19   -1552.5223    40.263866     65274.93   -700.75506   0.81512133   -10499.174 
  600000      1199970    302.41308    -7117.601   -8919.5714    1801.9705   -7371.1235   -1548.4479    40.181329    64874.333     580.9239   0.82015469    -6567.974 
  601000      1201970    302.34001   -7432.5039    -9234.039    1801.5351   -7656.2235   -1577.8155    40.222705    65074.947    151.20706    0.8176263   -7289.0007 
  602000      1203970    310.41674   -11147.881   -12997.542    1849.6614   -11392.825   -1604.7172    40.175754    64847.329   -1189.7686   0.82049622   -12273.083 
  603000      1205970    294.24963   -6359.3454   -8112.6728    1753.3274   -6584.6784   -1527.9944    40.169967    64819.314     865.8117   0.82085083   -5540.8735 
  604000      1207970    289.54358   -9779.4418   -11504.728    1725.2858   -9910.7826    -1593.945    40.211232    65019.278   -903.47583   0.81832635   -10636.153 
  605000      1209970    303.59719   -6050.0674   -7859.0936    1809.0261   -6271.9224   -1587.1712    40.197017    64950.346     635.2012   0.81919484   -5448.3832 
  606000      1211970    300.23141   -11191.698   -12980.668    1788.9706   -11453.134   -1527.5343    40.243489    65175.878   -971.76924   0.81636013   -12115.387 
  607000      1213970    298.97598   -6621.8599     -8403.35      1781.49   -6893.8081   -1509.5419    40.150766     64726.41    938.33236   0.82202904   -5736.1039 
  608000      1215970    290.21235   -8798.5139   -10527.785    1729.2707   -9045.5118   -1482.2728    40.210167    65014.109    103.60078    0.8183914   -8700.2834 
  609000      1217970    305.23613   -8578.0709   -10396.863     1818.792   -8874.7811   -1522.0819    40.243792     65177.35   -66.695103   0.81634169   -8641.4676 
  610000      1219970    300.61655   -7184.3009   -8975.5665    1791.2656   -7451.6036   -1523.9629    40.319527    65546.016    274.06355   0.81175015   -6922.3177 
  611000      1221970    314.01984   -9930.1832   -11801.314    1871.1309   -10251.161   -1550.1533     40.31636    65530.569   -820.46492    0.8119415   -10714.298 
  612000      1223970     297.7082   -9274.5284   -11048.464    1773.9358   -9499.0044   -1549.4597    40.230944    65114.944    -435.2895   0.81712407   -9687.8944 
  613000      1225970    302.11842   -6550.8391   -8351.0539    1800.2147   -6846.5568   -1504.4971    40.187975    64906.527    779.90594   0.81974788    -5812.584 
  614000      1227970    302.85093   -9099.0099   -10903.589    1804.5795   -9392.2439   -1511.3454    40.182603    64880.499   -35.376971   0.82007673   -9132.4841 
  615000      1229970    301.64134   -8714.6243   -10511.996    1797.3719   -8946.2257   -1565.7706    40.220239    65062.977    -322.8651   0.81777673   -9020.9835 
  616000      1231970    301.66822   -6277.2136   -8074.7457    1797.5321   -6545.8771   -1528.8686    40.220072    65062.167    734.21114   0.81778691   -5580.5464 
  617000      1233970    300.86061   -6853.9868   -8646.7066    1792.7199   -7127.9365   -1518.7701    40.201622    64972.673    571.83352   0.81891334   -6312.1403 
  618000      1235970     305.3966   -9823.3502   -11643.098    1819.7482   -10118.855   -1524.2429    40.217883    65051.544   -497.70603   0.81792045   -10295.529 
  619000      1237970    300.95578   -5743.9775   -7537.2644    1793.2869   -6028.9384   -1508.3261    40.179803    64866.941    1233.0966   0.82024815   -4577.4461 
  620000      1239970    304.70369   -8651.7697   -10467.389    1815.6194   -8952.1115   -1515.2776    40.233316    65126.462   -55.753617   0.81697956   -8704.7246 
  621000      1241970    300.84834   -6562.5257   -8355.1724    1792.6468   -6853.7868   -1501.3856    40.197115    64950.823    860.09221   0.81918882    -5747.811 
  622000      1243970    297.45151   -8509.8583   -10282.265    1772.4063   -8828.4081   -1453.8565    40.237235    65145.497    342.73173   0.81674085   -8184.2357 
  623000      1245970    299.03276    -8897.892    -10679.72    1781.8284   -9145.8328   -1533.8876    40.191518    64923.695    -179.3472   0.81953112   -9067.7061 
  624000      1247970     299.7133   -9077.6149   -10863.498    1785.8834   -9336.7767   -1526.7216    40.261449    65263.177   -220.12932   0.81526813   -9287.1332 
  625000      1249970    299.57159   -7543.5747   -9328.6138     1785.039   -7746.5525   -1582.0612    40.188157    64907.409    113.45412   0.81973675   -7436.1781 
  626000      1251970      302.528   -10914.202   -12716.857    1802.6552   -11154.703   -1562.1544    40.216874    65046.647   -983.02999   0.81798202   -11846.742 
  627000      1253970    307.51599    -6722.471   -8554.8478    1832.3768   -7037.5286   -1517.3192    40.169605     64817.56    758.91624   0.82087305   -6005.0692 
  628000      1255970    305.09436   -9380.6549   -11198.602    1817.9472   -9624.0896   -1574.5125    40.212445    65025.163   -508.35732   0.81825229    -9862.743 
  629000      1257970    297.17921   -7772.3911   -9543.1748    1770.7837   -8048.5078   -1494.6671    40.156571    64754.488    473.31911    0.8216726   -7325.3991 
  630000      1259970    309.90277   -7615.5385   -9462.1373    1846.5988   -7937.7253    -1524.412    40.230061    65110.657    262.57838   0.81717788   -7366.2014 
  631000      1261970    301.64439   -11088.118   -12885.508    1797.3901   -11364.536   -1520.9724    40.305015    65475.263   -1016.7557   0.81262733   -12059.008 
  632000      1263970    295.40542     -7056.42   -8816.6343    1760.2143   -7303.1242   -1513.5102    40.153839    64741.269     730.0621   0.82184037   -6367.1063 
  633000      1265970    305.55856   -9415.1818   -11235.895    1820.7133   -9754.7845   -1481.1106      40.2772    65339.804   -177.71082   0.81431203   -9584.5249 
  634000      1267970    304.65303    -9159.784   -10975.102    1815.3175   -9444.7253   -1530.3762    40.220045    65062.035   -289.19895   0.81778856   -9434.1942 
  635000      1269970    298.01655   -9547.6146   -11323.388    1775.7731   -9784.0192   -1539.3686    40.197467     64952.53   -453.52705   0.81916729   -9977.2254 
  636000      1271970    304.52772   -8220.6969   -10035.268    1814.5708   -8540.9898   -1494.2779    40.230502    65112.796    148.28276   0.81715103   -8079.8871 
  637000      1273970    311.89741   -9822.7622   -11681.246    1858.4842   -10203.944   -1477.3023     40.21737    65049.056   -204.52544   0.81795173    -10016.79 
  638000      1275970    306.22026   -9431.9977   -11256.654    1824.6561   -9717.9389   -1538.7149    40.199221    64961.031   -448.18483   0.81906009   -9856.6035 
  639000      1277970    292.04427   -7356.2144   -9096.4009    1740.1865   -7600.8034   -1495.5975    40.223905     65080.77    585.48152   0.81755314   -6800.5127 
  640000      1279970    305.10116   -7943.9253   -9761.9131    1817.9878   -8272.4794   -1489.4337    40.122005    64587.414    509.28261   0.82379809   -7464.2111 
  641000      1281970    297.57616   -11335.018   -13108.167     1773.149   -11566.622   -1541.5455    40.225323    65087.656   -1097.0843   0.81746666   -12376.411 
  642000      1283970     301.6744   -9066.4262   -10863.995     1797.569   -9325.8908   -1538.1044     40.20941    65010.439   -353.26222   0.81843761   -9401.3578 
  643000      1285970     299.9014   -7454.1048   -9241.1091    1787.0043   -7761.3256   -1479.7835    40.132597    64638.577    721.57733   0.82314604    -6773.883 
  644000      1287970    306.80551   -7724.3316    -9552.475    1828.1434   -8028.5248   -1523.9502    40.179495    64865.447     387.0379   0.82026704   -7358.1953 
  645000      1289970    300.67704   -8069.9156   -9861.5416    1791.6261   -8365.9899   -1495.5517    40.145891    64702.832    471.49584   0.82232858   -7625.0006 
  646000      1291970    298.64219    -10440.81   -12220.311    1779.5011   -10666.261   -1554.0499    40.253908    65226.513   -889.31223   0.81572639   -11286.779 
  647000      1293970    302.93213   -6417.4464   -8222.5097    1805.0633   -6757.6171   -1464.8926    40.237497    65146.769    947.12499    0.8167249    -5517.584 
  648000      1295970     292.4843   -8942.5755   -10685.384    1742.8084   -9188.4026   -1496.9813    40.178189    64859.124    9.0811523     0.820347   -8933.9856 
  649000      1297970    303.37102   -5467.2661   -7274.9446    1807.6785   -5868.0007   -1406.9439    40.202539    64977.118    1563.6246   0.81885731    -3985.537 
  650000      1299970    297.37728   -9089.7225   -10861.686    1771.9639   -9433.3997   -1428.2867    40.273922    65323.849    209.54227   0.81451091   -8890.0954 
  651000      1301970     300.9241    -8952.256   -10745.354    1793.0982   -9298.5283   -1446.8258    40.231588    65118.071      135.919   0.81708483   -8823.1764 
  652000      1303970    300.95185    -6319.516   -8112.7796    1793.2635   -6650.1132   -1462.6663    40.254219    65228.024    958.76552    0.8157075   -5407.4579 
  653000      1305970    303.62514   -8183.0023    -9992.195    1809.1927   -8572.4027   -1419.7923     40.20904    65008.645    656.43139   0.81846019   -7560.6499 
  654000      1307970    296.16769   -7898.7564   -9663.5129    1764.7565   -8080.5807   -1582.9322    40.300642    65453.957   -309.75035   0.81289185   -8194.4376 
  655000      1309970     290.7095    -9670.705   -11402.938    1732.2331   -9884.6253   -1518.3127    40.255334    65233.443   -463.02913   0.81563974   -10111.214 
  656000      1311970     303.2051   -7905.2646   -9711.9545    1806.6898    -8181.204   -1530.7505    40.234438    65131.909    118.19168   0.81691124   -7792.9965 
  657000      1313970    297.22009   -5794.4511   -7565.4784    1771.0273   -6017.2353   -1548.2431      40.2199    65061.335    803.62991   0.81779736   -5031.9246 
  658000      1315970    293.03482   -6104.0448   -7850.1336    1746.0888   -6339.1073   -1511.0263    40.099007    64476.412    1064.3055   0.82521633   -5103.2546 
  659000      1317970    297.40996    -7955.443   -9727.6017    1772.1587   -8194.5843   -1533.0174    40.177936    64857.898    213.26144   0.82036252    -7753.722 
  660000      1319970    299.21043   -7228.4871   -9011.3741     1782.887   -7458.1346   -1553.2395    40.100454     64483.39    475.87097   0.82512703   -6780.9666 
  661000      1321970    302.71751   -8167.0238   -9970.8082    1803.7845   -8455.1389   -1515.6693     40.20503    64989.198     142.0704    0.8187051   -8032.3693 
  662000      1323970    300.43299   -9494.1702   -11284.342    1790.1718   -9762.1779   -1522.1641    40.157434    64758.659    -282.4544   0.82161967    -9760.931 
  663000      1325970    289.91581   -7120.9174   -8848.4211    1727.5037    -7285.157   -1563.2641    40.173484    64836.338    307.48056   0.82063531   -6830.1725 
  664000      1327970    288.77063   -7085.3271   -8806.0071      1720.68   -7265.9957   -1540.0114     40.05898     64283.52    773.91673   0.82769251    -6359.773 
  665000      1329970    308.24628   -8495.6001   -10332.328    1836.7284   -8829.7131   -1502.6154    40.123429     64594.29    287.07685    0.8237104   -8225.1618 
  666000      1331970    296.57102   -6717.2922   -8484.4519    1767.1597   -6958.2601   -1526.1918    40.109543     64527.25    853.02409   0.82456618   -5914.5421 
  667000      1333970    303.77814   -8163.0553   -9973.1596    1810.1044   -8403.4151   -1569.7446    40.217204    65048.251   -135.24541   0.81796185   -8291.3574 
  668000      1335970    293.48122   -8859.8317    -10608.58    1748.7487   -9074.6967   -1533.8837    40.144946    64698.263   -93.455455   0.82238666   -8948.0123 
  669000      1337970    297.02323   -11486.589   -13256.443    1769.8543   -11714.085   -1542.3584    40.192735    64929.595   -1134.4477   0.81945665   -12560.833 
  670000      1339970     287.1454   -9751.4005   -11462.396    1710.9958   -9909.4661   -1552.9303    40.141902    64683.546   -463.91957   0.82257376   -10189.036 
  671000      1341970    291.46719   -9434.1503   -11170.898    1736.7478   -9572.8359   -1598.0623    40.173445     64836.15   -677.02145   0.82063769   -10074.321 
  672000      1343970      299.093   -8808.8165   -10591.004    1782.1873   -9055.1776   -1535.8262    40.141077    64679.561   -27.275194   0.82262445   -8834.5448 
  673000      1345970    291.18592   -9806.9604   -11542.032    1735.0719   -10019.579   -1522.4534    40.130609    64628.971   -316.79539   0.82326838   -10105.555 
  674000      1347970    301.21355   -8153.7646   -9948.5876    1794.8229   -8455.2039   -1493.3837    40.148942    64717.585    354.56934   0.82214112   -7819.1081 
  675000      1349970    301.30953   -8170.1754   -9965.5702    1795.3948   -8476.4617   -1489.1085    40.104186    64501.399    513.72855   0.82489666   -7686.9177 
  676000      1351970    309.86121   -8039.5574   -9885.9086    1846.3512   -8351.4591   -1534.4495     40.17972    64866.538    161.61948   0.82025324   -7886.6635 
  677000      1353970    301.39137    -8133.947   -9929.8294    1795.8825   -8422.0683   -1507.7612    40.141464    64681.431    303.54072   0.82260066   -7847.6133 
  678000      1355970    303.35952   -9979.6807   -11787.291      1807.61   -10232.545   -1554.7453    40.143937    64693.385    -514.9016   0.82244867   -10465.483 
  679000      1357970    307.69581   -7520.0338   -9353.4822    1833.4483   -7841.9415   -1511.5407    40.142272    64685.335    459.06165   0.82255101   -7086.9692 
  680000      1359970    304.82286   -8536.9141   -10353.244    1816.3295   -8802.1208   -1551.1228    40.084104    64404.549     72.44864   0.82613711    -8468.865 
  681000      1361970    308.48142   -9621.5529   -11459.682    1838.1295   -9938.4994    -1521.183    40.120107    64578.245   -264.57612   0.82391505   -9870.7327 
  682000      1363970    304.38099   -8746.2712   -10559.968    1813.6965   -9098.2709   -1461.6968    40.112164    64539.899     377.6922   0.82440457    -8390.769 
  683000      1365970    299.33804   -7759.3957   -9543.0431    1783.6474   -8057.5142   -1485.5289     40.08467    64407.275    752.11254   0.82610214   -7052.9258 
  684000      1367970    301.57535   -11066.628   -12863.607    1796.9787   -11342.373   -1521.2337    40.173564    64836.729   -850.60916   0.82063036   -11870.945 
  685000      1369970    293.89032   -7966.2221   -9717.4085    1751.1864   -8173.8855    -1543.523    40.196822    64949.404    7.9958063   0.81920672   -7958.6484 
  686000      1371970    301.41659   -8438.5648   -10234.597    1796.0327   -8776.4024   -1458.1951    40.149307    64719.353    429.26496   0.82211867   -8033.3964 
  687000      1373970    293.49835   -8428.1207   -10176.971    1748.8508    -8624.463   -1552.5085    40.093629    64450.474    24.569239   0.82554844    -8405.027 
  688000      1375970    294.51127   -8892.5784   -10647.465    1754.8864   -9084.1137   -1563.3511    40.125642    64604.979   -218.75602   0.82357411   -9098.6898 
  689000      1377970    296.13566   -8736.3678   -10500.933    1764.5656   -8966.1184   -1534.8149    40.113545    64546.565    72.250638   0.82431943    -8668.355 
  690000      1379970     307.1176   -7238.4589   -9068.4619     1830.003   -7559.5977   -1508.8641    40.158663    64764.609    606.85345   0.82154419   -6665.2704 
  691000      1381970    296.89521   -7993.2877   -9762.3792    1769.0915   -8305.9603   -1456.4189    40.208856    65007.753     517.1986   0.81847142   -7502.9465 
  692000      1383970    295.85488    -7458.663   -9221.5555    1762.8925   -7714.4006    -1507.155    40.170001     64819.48    431.20649   0.82084873   -7051.0325 
  693000      1385970    304.07136   -8456.6587    -10268.51    1811.8515   -8782.8653    -1485.645    40.154699     64745.43    173.77127   0.82178754    -8292.576 
  694000      1387970    292.61027   -10079.174   -11822.733     1743.559   -10308.021    -1514.712    40.194924    64940.203   -671.97179   0.81932279   -10715.589 
  695000      1389970    306.27607   -8862.6498   -10687.638    1824.9887   -9131.3888   -1556.2497    40.172437    64831.271   -343.40369   0.82069945   -9187.3372 
  696000      1391970    296.31636   -9099.3665   -10865.009    1765.6423   -9361.3863   -1503.6225    40.260686    65259.468   -222.18555   0.81531447   -9310.8299 
  697000      1393970    293.60155        -7875   -9624.4657    1749.4657   -8073.5615   -1550.9042    40.210946    65017.888   -29.249764   0.81834384   -7902.7352 
  698000      1395970    298.13349   -7845.8759   -9622.3458    1776.4699   -8076.5182   -1545.8276    40.218826    65056.123    84.247315   0.81786288    -7765.944 
  699000      1397970    295.68544   -5323.4469   -7085.3298    1761.8829   -5504.6231   -1580.7067    40.165897    64799.614    905.98222   0.82110039   -4467.2612 
  700000      1399970    311.73802   -8688.4122   -10545.947    1857.5344   -9037.0428   -1508.9038    40.216773    65046.161   -58.285142   0.81798814   -8743.7033 
  701000      1401970    302.62875   -6502.2935    -8305.549    1803.2555   -6783.1272   -1522.4218    40.146953    64707.968    826.26849   0.82226332   -5722.5445 
  702000      1403970    290.93759   -7962.1183   -9695.7104    1733.5922   -8104.2351   -1591.4753    40.128033    64616.525   -39.246699   0.82342695    -7999.103 
  703000      1405970     301.7263   -6452.4411   -8250.3193    1797.8782   -6769.6295   -1480.6898      40.2087    65006.998    925.65326   0.81848093   -5574.8659 
  704000      1407970    303.21127   -7351.5621   -9158.2887    1806.7266   -7608.7426   -1549.5461    40.253495    65224.505    134.95671   0.81575151   -7223.1869 
  705000      1409970    304.02607   -6511.5767   -8323.1584    1811.5817   -6809.0167   -1514.1417    40.249397    65204.586    589.32791    0.8160007     -5951.16 
  706000      1411970    300.40394   -6376.8248   -8166.8236    1789.9987   -6629.1409   -1537.6827    40.291978     65411.75    395.42863   0.81341637   -5999.6004 
  707000      1413970    287.99376   -5930.8955   -7646.9464     1716.051   -6154.2443   -1492.7021     40.26003    65256.274    822.19375   0.81535436   -5148.4171 
  708000      1415970    299.16189   -9163.2832   -10945.881    1782.5978    -9425.292    -1520.589    40.261812    65264.941   -432.57178   0.81524609   -9575.0147 
  709000      1417970    295.33465   -6080.7813    -7840.574    1759.7926   -6301.3064   -1539.2676     40.22865    65103.807    744.02274   0.81726386   -5374.3524 
  710000      1419970    308.89139   -7780.2766    -9620.849    1840.5724   -8150.4982   -1470.3508    40.241841     65167.87    380.14575   0.81646044   -7418.9836 
  711000      1421970    299.09523   -6110.6308   -7892.8313    1782.2006   -6298.4184    -1594.413    40.197645    64953.392    424.51527   0.81915642   -5708.4965 
  712000      1423970     315.3805   -9001.6862   -10880.925    1879.2387    -9365.968   -1514.9569    40.293472    65419.024   -372.74205   0.81332592    -9357.308 
  713000      1425970    299.26054   -9124.2512   -10907.437    1783.1856   -9444.8871   -1462.5497    40.249225    65203.749    7.6573916   0.81601118   -9116.9695 
  714000      1427970     305.1815   -6819.3915    -8637.858    1818.4665   -7093.8591   -1543.9989    40.240023    65159.037    279.65554   0.81657113   -6553.6411 
  715000      1429970    300.91145   -6230.0332    -8023.056    1793.0228   -6476.9504   -1546.1056    40.200079     64965.19    714.03602   0.81900765   -5553.5193 
  716000      1431970    297.01091   -9250.0344   -11019.815    1769.7809   -9510.5619   -1509.2534    40.223633    65079.449   -293.91328   0.81756974   -9528.9925 
  717000      1433970    301.39954   -11670.015   -13465.946    1795.9312   -11954.503   -1511.4429    40.272859     65318.68   -1293.4233   0.81457537   -12902.138 
  718000      1435970    297.67019   -8048.3659   -9822.0752    1773.7093   -8329.9113   -1492.1639    40.269247    65301.106    191.90662   0.81479459   -7865.6037 
  719000      1437970    291.40773   -10436.128   -12172.521    1736.3936   -10591.606   -1580.9147    40.265528    65283.013   -972.66985   0.81502041   -11362.193 
  720000      1439970    296.24536   -9782.2368   -11547.456    1765.2192   -9983.9302   -1563.5259    40.273994    65324.202    -807.7104   0.81450652   -10551.732 
  721000      1441970    302.78413   -8388.0374   -10192.219    1804.1814   -8697.4675   -1494.7514     40.28519    65378.697    136.85468    0.8138276   -8257.5491 
  722000      1443970    308.35245     -9758.25   -11595.611     1837.361   -10049.414   -1546.1969    40.219864     65061.16   -579.68985   0.81779957   -10308.289 
  723000      1445970    297.66059   -8033.3009   -9806.9529    1773.6521   -8357.0684   -1449.8845    40.237849    65148.479    519.99147   0.81670346   -7539.2446 
  724000      1447970    300.55854   -5655.9882   -7446.9081    1790.9199   -5949.5445   -1497.3636    40.248789    65201.633    986.70355   0.81603767   -4717.7329 
  725000      1449970    295.80158   -7996.8311    -9759.406    1762.5749   -8298.0366   -1461.3694    40.245062    65183.519    496.57757   0.81626443   -7524.7672 
  726000      1451970     308.6316   -7904.0252   -9743.0496    1839.0244   -8213.0539   -1529.9957    40.194396    64937.641    134.74427   0.81935512   -7776.4158 
  727000      1453970    293.09757   -8215.9515   -9962.4142    1746.4627   -8469.7265   -1492.6878    40.193766    64934.589    449.43008   0.81939362   -7790.3393 
  728000      1455970    292.55971   -7871.1695   -9614.4273    1743.2578    -8111.454   -1502.9733    40.166829    64804.125    435.80054   0.82104324   -7459.2937 
  729000      1457970    295.03788   -8341.9644   -10099.989    1758.0243   -8582.5122   -1517.4766    40.206754    64997.555    -9.432863   0.81859984   -8350.9061 
  730000      1459970    301.26893   -8983.6435   -10778.796    1795.1529   -9309.8355   -1468.9609    40.198531    64957.688    107.52514   0.81910224   -8881.7805 
  731000      1461970    295.59731   -10092.732    -11854.09    1761.3578   -10334.444   -1519.6455     40.22367    65079.628   -706.12403   0.81756748   -10762.928 
  732000      1463970    294.15496    -6910.904   -8663.6673    1752.7633    -7160.578   -1503.0893    40.211513     65020.64     675.6025    0.8183092   -6270.2576 
  733000      1465970    303.01253   -8769.5421   -10575.084    1805.5423   -9041.5736   -1533.5108    40.227437    65097.915   -148.56991   0.81733782   -8910.5924 
  734000      1467970    309.43786   -9759.7451   -11603.574    1843.8286   -10140.574   -1463.0002    40.226942    65095.513   -133.30248   0.81736798    -9886.296 
  735000      1469970    306.25784   -7454.4328   -9279.3128      1824.88   -7779.7684   -1499.5444    40.199831    64963.991    452.82472   0.81902277   -7025.4117 
  736000      1471970    300.48941   -5618.9112   -7409.4192     1790.508   -5876.3058   -1533.1134    40.220834    65065.868    937.33954   0.81774038   -4729.4519 
  737000      1473970    301.40503   -8455.0986   -10251.063    1795.9639   -8719.2007   -1531.8618    40.188636    64909.728   -91.423427   0.81970746   -8541.6439 
  738000      1475970     297.1416   -9952.1752   -11722.735    1770.5596   -10205.432   -1517.3032    40.248968    65202.498   -588.80003   0.81602684   -10512.072 
  739000      1477970    298.25823   -8097.5734   -9874.7867    1777.2132   -8328.5799   -1546.2068    40.253994     65226.93   -151.38666   0.81572117   -8241.5827 
  740000      1479970    299.87431   -8930.3676    -10717.21    1786.8429   -9286.6665   -1430.5439    40.184671    64890.518    348.58361   0.81995012   -8600.4814 
  741000      1481970     300.7946    -7497.901   -9290.2275    1792.3265   -7778.2915    -1511.936    40.290812    65406.072    319.52672   0.81348698   -7193.1107 
  742000      1483970    296.60191   -8660.6574   -10428.001    1767.3438   -8866.6403   -1561.3609    40.265185    65281.343   -384.53699   0.81504126   -9026.7602 
  743000      1485970     304.2023   -7691.4016   -9504.0334    1812.6318   -8013.2462   -1490.7872    40.222486    65073.882    414.42506   0.81763968   -7298.0974 
  744000      1487970    293.96816    -9331.784   -11083.434    1751.6502   -9542.2071   -1541.2271    40.243513    65175.991   -536.67357   0.81635871   -9841.9056 
  745000      1489970    304.37018   -7387.1337   -9200.7658    1813.6321   -7710.0021   -1490.7637     40.27872    65347.201    395.00535   0.81421984   -7010.6849 
  746000      1491970    299.64608   -9072.6855   -10858.168    1785.4829   -9379.6509   -1478.5175    40.292831    65415.904   -164.55912   0.81336472   -9229.6789 
  747000      1493970    302.20772   -8155.0707   -9955.8175    1800.7468   -8454.2624    -1501.555    40.207854    65002.893    198.00448   0.81853261   -7967.3623 
  748000      1495970    304.58155   -7502.9612   -9317.8528    1814.8916   -7806.6593   -1511.1935    40.259513     65253.76    331.16456   0.81538578   -7187.8054 
  749000      1497970    305.86421   -9254.6172   -11077.152    1822.5345   -9526.7876   -1550.3642    40.229032    65105.661    -456.2032   0.81724058   -9687.7819 
  750000      1499970    300.77396   -8291.6041   -10083.808    1792.2035   -8599.2282   -1484.5794    40.271257    65310.882    119.45237   0.81467264   -8177.8266 
  750015      1500000    294.30047   -9908.1903   -11661.821    1753.6303   -10129.222   -1532.5988    40.280552    65356.115   -774.60415   0.81410879   -10646.506 
Loop time of 8421.8 on 1 procs for 750000 steps with 3000 atoms

Performance: 15.389 ns/day, 1.560 hours/ns, 89.055 timesteps/s
99.1% CPU use with 1 MPI tasks x 1 OpenMP threads

MPI task timing breakdown:
Section |  min time  |  avg time  |  max time  |%varavg| %total
---------------------------------------------------------------
Pair    | 6949.1     | 6949.1     | 6949.1     |   0.0 | 82.51
Bond    | 0.66642    | 0.66642    | 0.66642    |   0.0 |  0.01
Neigh   | 1011.9     | 1011.9     | 1011.9     |   0.0 | 12.02
Comm    | 65.282     | 65.282     | 65.282     |   0.0 |  0.78
Output  | 7.8873     | 7.8873     | 7.8873     |   0.0 |  0.09
Modify  | 368.11     | 368.11     | 368.11     |   0.0 |  4.37
Other   |            | 18.89      |            |       |  0.22

Nlocal:        3000.00 ave        3000 max        3000 min
Histogram: 1 0 0 0 0 0 0 0 0 0
Nghost:        9207.00 ave        9207 max        9207 min
Histogram: 1 0 0 0 0 0 0 0 0 0
Neighs:       494879.0 ave      494879 max      494879 min
Histogram: 1 0 0 0 0 0 0 0 0 0

Total # of neighbors = 494879
Ave neighs/atom = 164.95967
Ave special neighs/atom = 2.0000000
Neighbor list builds = 51730
Dangerous builds = 4191

write_data npt_simulation_result.lmp
System init for write_data ...
Total wall time: 2:20:22
